%%MatrixMarket matrix coordinate pattern general
599 384 72
1 97
2 98
3 99
4 100
5 101
6 102
7 103
8 104
9 105
10 106
11 107
12 108
13 109
14 110
15 111
16 112
17 113
18 114
19 115
20 116
21 117
22 118
23 119
24 120
175 193
176 194
177 195
178 196
179 197
180 198
181 199
182 200
183 201
184 202
185 203
186 204
187 205
188 206
189 207
190 208
191 209
192 210
193 211
194 212
195 213
196 214
197 215
198 216
349 289
350 290
351 291
352 292
353 293
354 294
355 295
356 296
357 297
358 298
359 299
360 300
361 301
362 302
363 303
364 304
365 305
366 306
367 307
368 308
369 309
370 310
371 311
372 312
