%%MatrixMarket matrix coordinate pattern general
599 384 37944
25 25
26 25
27 25
28 25
29 25
30 25
31 25
32 25
33 25
34 25
35 25
36 25
37 25
38 25
39 25
40 25
41 25
42 25
43 25
44 25
45 25
46 25
47 25
48 25
49 25
50 25
51 25
52 25
53 25
54 25
55 25
56 25
57 25
58 25
59 25
60 25
61 25
62 25
63 25
64 25
65 25
66 25
67 25
68 25
69 25
70 25
71 25
72 25
73 25
74 25
75 25
76 25
77 25
78 25
79 25
80 25
81 25
82 25
83 25
84 25
85 25
86 25
87 25
88 25
89 25
90 25
91 25
92 25
93 25
94 25
95 25
96 25
97 25
98 25
99 25
100 25
101 25
102 25
103 25
104 25
105 25
106 25
107 25
108 25
109 25
110 25
111 25
112 25
113 25
114 25
115 25
116 25
117 25
118 25
119 25
120 25
121 25
122 25
123 25
124 25
125 25
126 25
127 25
128 25
129 25
130 25
131 25
132 25
133 25
134 25
135 25
136 25
137 25
138 25
139 25
140 25
141 25
142 25
143 25
144 25
145 25
146 25
147 25
148 25
149 25
150 25
151 25
152 25
153 25
154 25
155 25
156 25
157 25
158 25
159 25
160 25
161 25
162 25
163 25
164 25
165 25
166 25
167 25
168 25
169 25
170 25
171 25
172 25
173 25
174 25
25 26
26 26
27 26
28 26
29 26
30 26
31 26
32 26
33 26
34 26
35 26
36 26
37 26
38 26
39 26
40 26
41 26
42 26
43 26
44 26
45 26
46 26
47 26
48 26
49 26
50 26
51 26
52 26
53 26
54 26
55 26
56 26
57 26
58 26
59 26
60 26
61 26
62 26
63 26
64 26
65 26
66 26
67 26
68 26
69 26
70 26
71 26
72 26
73 26
74 26
75 26
76 26
77 26
78 26
79 26
80 26
81 26
82 26
83 26
84 26
85 26
86 26
87 26
88 26
89 26
90 26
91 26
92 26
93 26
94 26
95 26
96 26
97 26
98 26
99 26
100 26
101 26
102 26
103 26
104 26
105 26
106 26
107 26
108 26
109 26
110 26
111 26
112 26
113 26
114 26
115 26
116 26
117 26
118 26
119 26
120 26
121 26
122 26
123 26
124 26
125 26
126 26
127 26
128 26
129 26
130 26
131 26
132 26
133 26
134 26
135 26
136 26
137 26
138 26
139 26
140 26
141 26
142 26
143 26
144 26
145 26
146 26
147 26
148 26
149 26
150 26
151 26
152 26
153 26
154 26
155 26
156 26
157 26
158 26
159 26
160 26
161 26
162 26
163 26
164 26
165 26
166 26
167 26
168 26
169 26
170 26
171 26
172 26
173 26
174 26
25 27
26 27
27 27
28 27
29 27
30 27
31 27
32 27
33 27
34 27
35 27
36 27
37 27
38 27
39 27
40 27
41 27
42 27
43 27
44 27
45 27
46 27
47 27
48 27
49 27
50 27
51 27
52 27
53 27
54 27
55 27
56 27
57 27
58 27
59 27
60 27
61 27
62 27
63 27
64 27
65 27
66 27
67 27
68 27
69 27
70 27
71 27
72 27
73 27
74 27
75 27
76 27
77 27
78 27
79 27
80 27
81 27
82 27
83 27
84 27
85 27
86 27
87 27
88 27
89 27
90 27
91 27
92 27
93 27
94 27
95 27
96 27
97 27
98 27
99 27
100 27
101 27
102 27
103 27
104 27
105 27
106 27
107 27
108 27
109 27
110 27
111 27
112 27
113 27
114 27
115 27
116 27
117 27
118 27
119 27
120 27
121 27
122 27
123 27
124 27
125 27
126 27
127 27
128 27
129 27
130 27
131 27
132 27
133 27
134 27
135 27
136 27
137 27
138 27
139 27
140 27
141 27
142 27
143 27
144 27
145 27
146 27
147 27
148 27
149 27
150 27
151 27
152 27
153 27
154 27
155 27
156 27
157 27
158 27
159 27
160 27
161 27
162 27
163 27
164 27
165 27
166 27
167 27
168 27
169 27
170 27
171 27
172 27
173 27
174 27
25 28
26 28
27 28
28 28
29 28
30 28
31 28
32 28
33 28
34 28
35 28
36 28
37 28
38 28
39 28
40 28
41 28
42 28
43 28
44 28
45 28
46 28
47 28
48 28
49 28
50 28
51 28
52 28
53 28
54 28
55 28
56 28
57 28
58 28
59 28
60 28
61 28
62 28
63 28
64 28
65 28
66 28
67 28
68 28
69 28
70 28
71 28
72 28
73 28
74 28
75 28
76 28
77 28
78 28
79 28
80 28
81 28
82 28
83 28
84 28
85 28
86 28
87 28
88 28
89 28
90 28
91 28
92 28
93 28
94 28
95 28
96 28
97 28
98 28
99 28
100 28
101 28
102 28
103 28
104 28
105 28
106 28
107 28
108 28
109 28
110 28
111 28
112 28
113 28
114 28
115 28
116 28
117 28
118 28
119 28
120 28
121 28
122 28
123 28
124 28
125 28
126 28
127 28
128 28
129 28
130 28
131 28
132 28
133 28
134 28
135 28
136 28
137 28
138 28
139 28
140 28
141 28
142 28
143 28
144 28
145 28
146 28
147 28
148 28
149 28
150 28
151 28
152 28
153 28
154 28
155 28
156 28
157 28
158 28
159 28
160 28
161 28
162 28
163 28
164 28
165 28
166 28
167 28
168 28
169 28
170 28
171 28
172 28
173 28
174 28
25 29
26 29
27 29
28 29
29 29
30 29
31 29
32 29
33 29
34 29
35 29
36 29
37 29
38 29
39 29
40 29
41 29
42 29
43 29
44 29
45 29
46 29
47 29
48 29
49 29
50 29
51 29
52 29
53 29
54 29
55 29
56 29
57 29
58 29
59 29
60 29
61 29
62 29
63 29
64 29
65 29
66 29
67 29
68 29
69 29
70 29
71 29
72 29
73 29
74 29
75 29
76 29
77 29
78 29
79 29
80 29
81 29
82 29
83 29
84 29
85 29
86 29
87 29
88 29
89 29
90 29
91 29
92 29
93 29
94 29
95 29
96 29
97 29
98 29
99 29
100 29
101 29
102 29
103 29
104 29
105 29
106 29
107 29
108 29
109 29
110 29
111 29
112 29
113 29
114 29
115 29
116 29
117 29
118 29
119 29
120 29
121 29
122 29
123 29
124 29
125 29
126 29
127 29
128 29
129 29
130 29
131 29
132 29
133 29
134 29
135 29
136 29
137 29
138 29
139 29
140 29
141 29
142 29
143 29
144 29
145 29
146 29
147 29
148 29
149 29
150 29
151 29
152 29
153 29
154 29
155 29
156 29
157 29
158 29
159 29
160 29
161 29
162 29
163 29
164 29
165 29
166 29
167 29
168 29
169 29
170 29
171 29
172 29
173 29
174 29
25 30
26 30
27 30
28 30
29 30
30 30
31 30
32 30
33 30
34 30
35 30
36 30
37 30
38 30
39 30
40 30
41 30
42 30
43 30
44 30
45 30
46 30
47 30
48 30
49 30
50 30
51 30
52 30
53 30
54 30
55 30
56 30
57 30
58 30
59 30
60 30
61 30
62 30
63 30
64 30
65 30
66 30
67 30
68 30
69 30
70 30
71 30
72 30
73 30
74 30
75 30
76 30
77 30
78 30
79 30
80 30
81 30
82 30
83 30
84 30
85 30
86 30
87 30
88 30
89 30
90 30
91 30
92 30
93 30
94 30
95 30
96 30
97 30
98 30
99 30
100 30
101 30
102 30
103 30
104 30
105 30
106 30
107 30
108 30
109 30
110 30
111 30
112 30
113 30
114 30
115 30
116 30
117 30
118 30
119 30
120 30
121 30
122 30
123 30
124 30
125 30
126 30
127 30
128 30
129 30
130 30
131 30
132 30
133 30
134 30
135 30
136 30
137 30
138 30
139 30
140 30
141 30
142 30
143 30
144 30
145 30
146 30
147 30
148 30
149 30
150 30
151 30
152 30
153 30
154 30
155 30
156 30
157 30
158 30
159 30
160 30
161 30
162 30
163 30
164 30
165 30
166 30
167 30
168 30
169 30
170 30
171 30
172 30
173 30
174 30
25 31
26 31
27 31
28 31
29 31
30 31
31 31
32 31
33 31
34 31
35 31
36 31
37 31
38 31
39 31
40 31
41 31
42 31
43 31
44 31
45 31
46 31
47 31
48 31
49 31
50 31
51 31
52 31
53 31
54 31
55 31
56 31
57 31
58 31
59 31
60 31
61 31
62 31
63 31
64 31
65 31
66 31
67 31
68 31
69 31
70 31
71 31
72 31
73 31
74 31
75 31
76 31
77 31
78 31
79 31
80 31
81 31
82 31
83 31
84 31
85 31
86 31
87 31
88 31
89 31
90 31
91 31
92 31
93 31
94 31
95 31
96 31
97 31
98 31
99 31
100 31
101 31
102 31
103 31
104 31
105 31
106 31
107 31
108 31
109 31
110 31
111 31
112 31
113 31
114 31
115 31
116 31
117 31
118 31
119 31
120 31
121 31
122 31
123 31
124 31
125 31
126 31
127 31
128 31
129 31
130 31
131 31
132 31
133 31
134 31
135 31
136 31
137 31
138 31
139 31
140 31
141 31
142 31
143 31
144 31
145 31
146 31
147 31
148 31
149 31
150 31
151 31
152 31
153 31
154 31
155 31
156 31
157 31
158 31
159 31
160 31
161 31
162 31
163 31
164 31
165 31
166 31
167 31
168 31
169 31
170 31
171 31
172 31
173 31
174 31
25 32
26 32
27 32
28 32
29 32
30 32
31 32
32 32
33 32
34 32
35 32
36 32
37 32
38 32
39 32
40 32
41 32
42 32
43 32
44 32
45 32
46 32
47 32
48 32
49 32
50 32
51 32
52 32
53 32
54 32
55 32
56 32
57 32
58 32
59 32
60 32
61 32
62 32
63 32
64 32
65 32
66 32
67 32
68 32
69 32
70 32
71 32
72 32
73 32
74 32
75 32
76 32
77 32
78 32
79 32
80 32
81 32
82 32
83 32
84 32
85 32
86 32
87 32
88 32
89 32
90 32
91 32
92 32
93 32
94 32
95 32
96 32
97 32
98 32
99 32
100 32
101 32
102 32
103 32
104 32
105 32
106 32
107 32
108 32
109 32
110 32
111 32
112 32
113 32
114 32
115 32
116 32
117 32
118 32
119 32
120 32
121 32
122 32
123 32
124 32
125 32
126 32
127 32
128 32
129 32
130 32
131 32
132 32
133 32
134 32
135 32
136 32
137 32
138 32
139 32
140 32
141 32
142 32
143 32
144 32
145 32
146 32
147 32
148 32
149 32
150 32
151 32
152 32
153 32
154 32
155 32
156 32
157 32
158 32
159 32
160 32
161 32
162 32
163 32
164 32
165 32
166 32
167 32
168 32
169 32
170 32
171 32
172 32
173 32
174 32
25 33
26 33
27 33
28 33
29 33
30 33
31 33
32 33
33 33
34 33
35 33
36 33
37 33
38 33
39 33
40 33
41 33
42 33
43 33
44 33
45 33
46 33
47 33
48 33
49 33
50 33
51 33
52 33
53 33
54 33
55 33
56 33
57 33
58 33
59 33
60 33
61 33
62 33
63 33
64 33
65 33
66 33
67 33
68 33
69 33
70 33
71 33
72 33
73 33
74 33
75 33
76 33
77 33
78 33
79 33
80 33
81 33
82 33
83 33
84 33
85 33
86 33
87 33
88 33
89 33
90 33
91 33
92 33
93 33
94 33
95 33
96 33
97 33
98 33
99 33
100 33
101 33
102 33
103 33
104 33
105 33
106 33
107 33
108 33
109 33
110 33
111 33
112 33
113 33
114 33
115 33
116 33
117 33
118 33
119 33
120 33
121 33
122 33
123 33
124 33
125 33
126 33
127 33
128 33
129 33
130 33
131 33
132 33
133 33
134 33
135 33
136 33
137 33
138 33
139 33
140 33
141 33
142 33
143 33
144 33
145 33
146 33
147 33
148 33
149 33
150 33
151 33
152 33
153 33
154 33
155 33
156 33
157 33
158 33
159 33
160 33
161 33
162 33
163 33
164 33
165 33
166 33
167 33
168 33
169 33
170 33
171 33
172 33
173 33
174 33
25 34
26 34
27 34
28 34
29 34
30 34
31 34
32 34
33 34
34 34
35 34
36 34
37 34
38 34
39 34
40 34
41 34
42 34
43 34
44 34
45 34
46 34
47 34
48 34
49 34
50 34
51 34
52 34
53 34
54 34
55 34
56 34
57 34
58 34
59 34
60 34
61 34
62 34
63 34
64 34
65 34
66 34
67 34
68 34
69 34
70 34
71 34
72 34
73 34
74 34
75 34
76 34
77 34
78 34
79 34
80 34
81 34
82 34
83 34
84 34
85 34
86 34
87 34
88 34
89 34
90 34
91 34
92 34
93 34
94 34
95 34
96 34
97 34
98 34
99 34
100 34
101 34
102 34
103 34
104 34
105 34
106 34
107 34
108 34
109 34
110 34
111 34
112 34
113 34
114 34
115 34
116 34
117 34
118 34
119 34
120 34
121 34
122 34
123 34
124 34
125 34
126 34
127 34
128 34
129 34
130 34
131 34
132 34
133 34
134 34
135 34
136 34
137 34
138 34
139 34
140 34
141 34
142 34
143 34
144 34
145 34
146 34
147 34
148 34
149 34
150 34
151 34
152 34
153 34
154 34
155 34
156 34
157 34
158 34
159 34
160 34
161 34
162 34
163 34
164 34
165 34
166 34
167 34
168 34
169 34
170 34
171 34
172 34
173 34
174 34
25 35
26 35
27 35
28 35
29 35
30 35
31 35
32 35
33 35
34 35
35 35
36 35
37 35
38 35
39 35
40 35
41 35
42 35
43 35
44 35
45 35
46 35
47 35
48 35
49 35
50 35
51 35
52 35
53 35
54 35
55 35
56 35
57 35
58 35
59 35
60 35
61 35
62 35
63 35
64 35
65 35
66 35
67 35
68 35
69 35
70 35
71 35
72 35
73 35
74 35
75 35
76 35
77 35
78 35
79 35
80 35
81 35
82 35
83 35
84 35
85 35
86 35
87 35
88 35
89 35
90 35
91 35
92 35
93 35
94 35
95 35
96 35
97 35
98 35
99 35
100 35
101 35
102 35
103 35
104 35
105 35
106 35
107 35
108 35
109 35
110 35
111 35
112 35
113 35
114 35
115 35
116 35
117 35
118 35
119 35
120 35
121 35
122 35
123 35
124 35
125 35
126 35
127 35
128 35
129 35
130 35
131 35
132 35
133 35
134 35
135 35
136 35
137 35
138 35
139 35
140 35
141 35
142 35
143 35
144 35
145 35
146 35
147 35
148 35
149 35
150 35
151 35
152 35
153 35
154 35
155 35
156 35
157 35
158 35
159 35
160 35
161 35
162 35
163 35
164 35
165 35
166 35
167 35
168 35
169 35
170 35
171 35
172 35
173 35
174 35
25 36
26 36
27 36
28 36
29 36
30 36
31 36
32 36
33 36
34 36
35 36
36 36
37 36
38 36
39 36
40 36
41 36
42 36
43 36
44 36
45 36
46 36
47 36
48 36
49 36
50 36
51 36
52 36
53 36
54 36
55 36
56 36
57 36
58 36
59 36
60 36
61 36
62 36
63 36
64 36
65 36
66 36
67 36
68 36
69 36
70 36
71 36
72 36
73 36
74 36
75 36
76 36
77 36
78 36
79 36
80 36
81 36
82 36
83 36
84 36
85 36
86 36
87 36
88 36
89 36
90 36
91 36
92 36
93 36
94 36
95 36
96 36
97 36
98 36
99 36
100 36
101 36
102 36
103 36
104 36
105 36
106 36
107 36
108 36
109 36
110 36
111 36
112 36
113 36
114 36
115 36
116 36
117 36
118 36
119 36
120 36
121 36
122 36
123 36
124 36
125 36
126 36
127 36
128 36
129 36
130 36
131 36
132 36
133 36
134 36
135 36
136 36
137 36
138 36
139 36
140 36
141 36
142 36
143 36
144 36
145 36
146 36
147 36
148 36
149 36
150 36
151 36
152 36
153 36
154 36
155 36
156 36
157 36
158 36
159 36
160 36
161 36
162 36
163 36
164 36
165 36
166 36
167 36
168 36
169 36
170 36
171 36
172 36
173 36
174 36
25 37
26 37
27 37
28 37
29 37
30 37
31 37
32 37
33 37
34 37
35 37
36 37
37 37
38 37
39 37
40 37
41 37
42 37
43 37
44 37
45 37
46 37
47 37
48 37
49 37
50 37
51 37
52 37
53 37
54 37
55 37
56 37
57 37
58 37
59 37
60 37
61 37
62 37
63 37
64 37
65 37
66 37
67 37
68 37
69 37
70 37
71 37
72 37
73 37
74 37
75 37
76 37
77 37
78 37
79 37
80 37
81 37
82 37
83 37
84 37
85 37
86 37
87 37
88 37
89 37
90 37
91 37
92 37
93 37
94 37
95 37
96 37
97 37
98 37
99 37
100 37
101 37
102 37
103 37
104 37
105 37
106 37
107 37
108 37
109 37
110 37
111 37
112 37
113 37
114 37
115 37
116 37
117 37
118 37
119 37
120 37
121 37
122 37
123 37
124 37
125 37
126 37
127 37
128 37
129 37
130 37
131 37
132 37
133 37
134 37
135 37
136 37
137 37
138 37
139 37
140 37
141 37
142 37
143 37
144 37
145 37
146 37
147 37
148 37
149 37
150 37
151 37
152 37
153 37
154 37
155 37
156 37
157 37
158 37
159 37
160 37
161 37
162 37
163 37
164 37
165 37
166 37
167 37
168 37
169 37
170 37
171 37
172 37
173 37
174 37
25 38
26 38
27 38
28 38
29 38
30 38
31 38
32 38
33 38
34 38
35 38
36 38
37 38
38 38
39 38
40 38
41 38
42 38
43 38
44 38
45 38
46 38
47 38
48 38
49 38
50 38
51 38
52 38
53 38
54 38
55 38
56 38
57 38
58 38
59 38
60 38
61 38
62 38
63 38
64 38
65 38
66 38
67 38
68 38
69 38
70 38
71 38
72 38
73 38
74 38
75 38
76 38
77 38
78 38
79 38
80 38
81 38
82 38
83 38
84 38
85 38
86 38
87 38
88 38
89 38
90 38
91 38
92 38
93 38
94 38
95 38
96 38
97 38
98 38
99 38
100 38
101 38
102 38
103 38
104 38
105 38
106 38
107 38
108 38
109 38
110 38
111 38
112 38
113 38
114 38
115 38
116 38
117 38
118 38
119 38
120 38
121 38
122 38
123 38
124 38
125 38
126 38
127 38
128 38
129 38
130 38
131 38
132 38
133 38
134 38
135 38
136 38
137 38
138 38
139 38
140 38
141 38
142 38
143 38
144 38
145 38
146 38
147 38
148 38
149 38
150 38
151 38
152 38
153 38
154 38
155 38
156 38
157 38
158 38
159 38
160 38
161 38
162 38
163 38
164 38
165 38
166 38
167 38
168 38
169 38
170 38
171 38
172 38
173 38
174 38
25 39
26 39
27 39
28 39
29 39
30 39
31 39
32 39
33 39
34 39
35 39
36 39
37 39
38 39
39 39
40 39
41 39
42 39
43 39
44 39
45 39
46 39
47 39
48 39
49 39
50 39
51 39
52 39
53 39
54 39
55 39
56 39
57 39
58 39
59 39
60 39
61 39
62 39
63 39
64 39
65 39
66 39
67 39
68 39
69 39
70 39
71 39
72 39
73 39
74 39
75 39
76 39
77 39
78 39
79 39
80 39
81 39
82 39
83 39
84 39
85 39
86 39
87 39
88 39
89 39
90 39
91 39
92 39
93 39
94 39
95 39
96 39
97 39
98 39
99 39
100 39
101 39
102 39
103 39
104 39
105 39
106 39
107 39
108 39
109 39
110 39
111 39
112 39
113 39
114 39
115 39
116 39
117 39
118 39
119 39
120 39
121 39
122 39
123 39
124 39
125 39
126 39
127 39
128 39
129 39
130 39
131 39
132 39
133 39
134 39
135 39
136 39
137 39
138 39
139 39
140 39
141 39
142 39
143 39
144 39
145 39
146 39
147 39
148 39
149 39
150 39
151 39
152 39
153 39
154 39
155 39
156 39
157 39
158 39
159 39
160 39
161 39
162 39
163 39
164 39
165 39
166 39
167 39
168 39
169 39
170 39
171 39
172 39
173 39
174 39
25 40
26 40
27 40
28 40
29 40
30 40
31 40
32 40
33 40
34 40
35 40
36 40
37 40
38 40
39 40
40 40
41 40
42 40
43 40
44 40
45 40
46 40
47 40
48 40
49 40
50 40
51 40
52 40
53 40
54 40
55 40
56 40
57 40
58 40
59 40
60 40
61 40
62 40
63 40
64 40
65 40
66 40
67 40
68 40
69 40
70 40
71 40
72 40
73 40
74 40
75 40
76 40
77 40
78 40
79 40
80 40
81 40
82 40
83 40
84 40
85 40
86 40
87 40
88 40
89 40
90 40
91 40
92 40
93 40
94 40
95 40
96 40
97 40
98 40
99 40
100 40
101 40
102 40
103 40
104 40
105 40
106 40
107 40
108 40
109 40
110 40
111 40
112 40
113 40
114 40
115 40
116 40
117 40
118 40
119 40
120 40
121 40
122 40
123 40
124 40
125 40
126 40
127 40
128 40
129 40
130 40
131 40
132 40
133 40
134 40
135 40
136 40
137 40
138 40
139 40
140 40
141 40
142 40
143 40
144 40
145 40
146 40
147 40
148 40
149 40
150 40
151 40
152 40
153 40
154 40
155 40
156 40
157 40
158 40
159 40
160 40
161 40
162 40
163 40
164 40
165 40
166 40
167 40
168 40
169 40
170 40
171 40
172 40
173 40
174 40
25 41
26 41
27 41
28 41
29 41
30 41
31 41
32 41
33 41
34 41
35 41
36 41
37 41
38 41
39 41
40 41
41 41
42 41
43 41
44 41
45 41
46 41
47 41
48 41
49 41
50 41
51 41
52 41
53 41
54 41
55 41
56 41
57 41
58 41
59 41
60 41
61 41
62 41
63 41
64 41
65 41
66 41
67 41
68 41
69 41
70 41
71 41
72 41
73 41
74 41
75 41
76 41
77 41
78 41
79 41
80 41
81 41
82 41
83 41
84 41
85 41
86 41
87 41
88 41
89 41
90 41
91 41
92 41
93 41
94 41
95 41
96 41
97 41
98 41
99 41
100 41
101 41
102 41
103 41
104 41
105 41
106 41
107 41
108 41
109 41
110 41
111 41
112 41
113 41
114 41
115 41
116 41
117 41
118 41
119 41
120 41
121 41
122 41
123 41
124 41
125 41
126 41
127 41
128 41
129 41
130 41
131 41
132 41
133 41
134 41
135 41
136 41
137 41
138 41
139 41
140 41
141 41
142 41
143 41
144 41
145 41
146 41
147 41
148 41
149 41
150 41
151 41
152 41
153 41
154 41
155 41
156 41
157 41
158 41
159 41
160 41
161 41
162 41
163 41
164 41
165 41
166 41
167 41
168 41
169 41
170 41
171 41
172 41
173 41
174 41
25 42
26 42
27 42
28 42
29 42
30 42
31 42
32 42
33 42
34 42
35 42
36 42
37 42
38 42
39 42
40 42
41 42
42 42
43 42
44 42
45 42
46 42
47 42
48 42
49 42
50 42
51 42
52 42
53 42
54 42
55 42
56 42
57 42
58 42
59 42
60 42
61 42
62 42
63 42
64 42
65 42
66 42
67 42
68 42
69 42
70 42
71 42
72 42
73 42
74 42
75 42
76 42
77 42
78 42
79 42
80 42
81 42
82 42
83 42
84 42
85 42
86 42
87 42
88 42
89 42
90 42
91 42
92 42
93 42
94 42
95 42
96 42
97 42
98 42
99 42
100 42
101 42
102 42
103 42
104 42
105 42
106 42
107 42
108 42
109 42
110 42
111 42
112 42
113 42
114 42
115 42
116 42
117 42
118 42
119 42
120 42
121 42
122 42
123 42
124 42
125 42
126 42
127 42
128 42
129 42
130 42
131 42
132 42
133 42
134 42
135 42
136 42
137 42
138 42
139 42
140 42
141 42
142 42
143 42
144 42
145 42
146 42
147 42
148 42
149 42
150 42
151 42
152 42
153 42
154 42
155 42
156 42
157 42
158 42
159 42
160 42
161 42
162 42
163 42
164 42
165 42
166 42
167 42
168 42
169 42
170 42
171 42
172 42
173 42
174 42
25 43
26 43
27 43
28 43
29 43
30 43
31 43
32 43
33 43
34 43
35 43
36 43
37 43
38 43
39 43
40 43
41 43
42 43
43 43
44 43
45 43
46 43
47 43
48 43
49 43
50 43
51 43
52 43
53 43
54 43
55 43
56 43
57 43
58 43
59 43
60 43
61 43
62 43
63 43
64 43
65 43
66 43
67 43
68 43
69 43
70 43
71 43
72 43
73 43
74 43
75 43
76 43
77 43
78 43
79 43
80 43
81 43
82 43
83 43
84 43
85 43
86 43
87 43
88 43
89 43
90 43
91 43
92 43
93 43
94 43
95 43
96 43
97 43
98 43
99 43
100 43
101 43
102 43
103 43
104 43
105 43
106 43
107 43
108 43
109 43
110 43
111 43
112 43
113 43
114 43
115 43
116 43
117 43
118 43
119 43
120 43
121 43
122 43
123 43
124 43
125 43
126 43
127 43
128 43
129 43
130 43
131 43
132 43
133 43
134 43
135 43
136 43
137 43
138 43
139 43
140 43
141 43
142 43
143 43
144 43
145 43
146 43
147 43
148 43
149 43
150 43
151 43
152 43
153 43
154 43
155 43
156 43
157 43
158 43
159 43
160 43
161 43
162 43
163 43
164 43
165 43
166 43
167 43
168 43
169 43
170 43
171 43
172 43
173 43
174 43
25 44
26 44
27 44
28 44
29 44
30 44
31 44
32 44
33 44
34 44
35 44
36 44
37 44
38 44
39 44
40 44
41 44
42 44
43 44
44 44
45 44
46 44
47 44
48 44
49 44
50 44
51 44
52 44
53 44
54 44
55 44
56 44
57 44
58 44
59 44
60 44
61 44
62 44
63 44
64 44
65 44
66 44
67 44
68 44
69 44
70 44
71 44
72 44
73 44
74 44
75 44
76 44
77 44
78 44
79 44
80 44
81 44
82 44
83 44
84 44
85 44
86 44
87 44
88 44
89 44
90 44
91 44
92 44
93 44
94 44
95 44
96 44
97 44
98 44
99 44
100 44
101 44
102 44
103 44
104 44
105 44
106 44
107 44
108 44
109 44
110 44
111 44
112 44
113 44
114 44
115 44
116 44
117 44
118 44
119 44
120 44
121 44
122 44
123 44
124 44
125 44
126 44
127 44
128 44
129 44
130 44
131 44
132 44
133 44
134 44
135 44
136 44
137 44
138 44
139 44
140 44
141 44
142 44
143 44
144 44
145 44
146 44
147 44
148 44
149 44
150 44
151 44
152 44
153 44
154 44
155 44
156 44
157 44
158 44
159 44
160 44
161 44
162 44
163 44
164 44
165 44
166 44
167 44
168 44
169 44
170 44
171 44
172 44
173 44
174 44
25 45
26 45
27 45
28 45
29 45
30 45
31 45
32 45
33 45
34 45
35 45
36 45
37 45
38 45
39 45
40 45
41 45
42 45
43 45
44 45
45 45
46 45
47 45
48 45
49 45
50 45
51 45
52 45
53 45
54 45
55 45
56 45
57 45
58 45
59 45
60 45
61 45
62 45
63 45
64 45
65 45
66 45
67 45
68 45
69 45
70 45
71 45
72 45
73 45
74 45
75 45
76 45
77 45
78 45
79 45
80 45
81 45
82 45
83 45
84 45
85 45
86 45
87 45
88 45
89 45
90 45
91 45
92 45
93 45
94 45
95 45
96 45
97 45
98 45
99 45
100 45
101 45
102 45
103 45
104 45
105 45
106 45
107 45
108 45
109 45
110 45
111 45
112 45
113 45
114 45
115 45
116 45
117 45
118 45
119 45
120 45
121 45
122 45
123 45
124 45
125 45
126 45
127 45
128 45
129 45
130 45
131 45
132 45
133 45
134 45
135 45
136 45
137 45
138 45
139 45
140 45
141 45
142 45
143 45
144 45
145 45
146 45
147 45
148 45
149 45
150 45
151 45
152 45
153 45
154 45
155 45
156 45
157 45
158 45
159 45
160 45
161 45
162 45
163 45
164 45
165 45
166 45
167 45
168 45
169 45
170 45
171 45
172 45
173 45
174 45
25 46
26 46
27 46
28 46
29 46
30 46
31 46
32 46
33 46
34 46
35 46
36 46
37 46
38 46
39 46
40 46
41 46
42 46
43 46
44 46
45 46
46 46
47 46
48 46
49 46
50 46
51 46
52 46
53 46
54 46
55 46
56 46
57 46
58 46
59 46
60 46
61 46
62 46
63 46
64 46
65 46
66 46
67 46
68 46
69 46
70 46
71 46
72 46
73 46
74 46
75 46
76 46
77 46
78 46
79 46
80 46
81 46
82 46
83 46
84 46
85 46
86 46
87 46
88 46
89 46
90 46
91 46
92 46
93 46
94 46
95 46
96 46
97 46
98 46
99 46
100 46
101 46
102 46
103 46
104 46
105 46
106 46
107 46
108 46
109 46
110 46
111 46
112 46
113 46
114 46
115 46
116 46
117 46
118 46
119 46
120 46
121 46
122 46
123 46
124 46
125 46
126 46
127 46
128 46
129 46
130 46
131 46
132 46
133 46
134 46
135 46
136 46
137 46
138 46
139 46
140 46
141 46
142 46
143 46
144 46
145 46
146 46
147 46
148 46
149 46
150 46
151 46
152 46
153 46
154 46
155 46
156 46
157 46
158 46
159 46
160 46
161 46
162 46
163 46
164 46
165 46
166 46
167 46
168 46
169 46
170 46
171 46
172 46
173 46
174 46
25 47
26 47
27 47
28 47
29 47
30 47
31 47
32 47
33 47
34 47
35 47
36 47
37 47
38 47
39 47
40 47
41 47
42 47
43 47
44 47
45 47
46 47
47 47
48 47
49 47
50 47
51 47
52 47
53 47
54 47
55 47
56 47
57 47
58 47
59 47
60 47
61 47
62 47
63 47
64 47
65 47
66 47
67 47
68 47
69 47
70 47
71 47
72 47
73 47
74 47
75 47
76 47
77 47
78 47
79 47
80 47
81 47
82 47
83 47
84 47
85 47
86 47
87 47
88 47
89 47
90 47
91 47
92 47
93 47
94 47
95 47
96 47
97 47
98 47
99 47
100 47
101 47
102 47
103 47
104 47
105 47
106 47
107 47
108 47
109 47
110 47
111 47
112 47
113 47
114 47
115 47
116 47
117 47
118 47
119 47
120 47
121 47
122 47
123 47
124 47
125 47
126 47
127 47
128 47
129 47
130 47
131 47
132 47
133 47
134 47
135 47
136 47
137 47
138 47
139 47
140 47
141 47
142 47
143 47
144 47
145 47
146 47
147 47
148 47
149 47
150 47
151 47
152 47
153 47
154 47
155 47
156 47
157 47
158 47
159 47
160 47
161 47
162 47
163 47
164 47
165 47
166 47
167 47
168 47
169 47
170 47
171 47
172 47
173 47
174 47
25 48
26 48
27 48
28 48
29 48
30 48
31 48
32 48
33 48
34 48
35 48
36 48
37 48
38 48
39 48
40 48
41 48
42 48
43 48
44 48
45 48
46 48
47 48
48 48
49 48
50 48
51 48
52 48
53 48
54 48
55 48
56 48
57 48
58 48
59 48
60 48
61 48
62 48
63 48
64 48
65 48
66 48
67 48
68 48
69 48
70 48
71 48
72 48
73 48
74 48
75 48
76 48
77 48
78 48
79 48
80 48
81 48
82 48
83 48
84 48
85 48
86 48
87 48
88 48
89 48
90 48
91 48
92 48
93 48
94 48
95 48
96 48
97 48
98 48
99 48
100 48
101 48
102 48
103 48
104 48
105 48
106 48
107 48
108 48
109 48
110 48
111 48
112 48
113 48
114 48
115 48
116 48
117 48
118 48
119 48
120 48
121 48
122 48
123 48
124 48
125 48
126 48
127 48
128 48
129 48
130 48
131 48
132 48
133 48
134 48
135 48
136 48
137 48
138 48
139 48
140 48
141 48
142 48
143 48
144 48
145 48
146 48
147 48
148 48
149 48
150 48
151 48
152 48
153 48
154 48
155 48
156 48
157 48
158 48
159 48
160 48
161 48
162 48
163 48
164 48
165 48
166 48
167 48
168 48
169 48
170 48
171 48
172 48
173 48
174 48
25 49
26 49
27 49
28 49
29 49
30 49
31 49
32 49
33 49
34 49
35 49
36 49
37 49
38 49
39 49
40 49
41 49
42 49
43 49
44 49
45 49
46 49
47 49
48 49
49 49
50 49
51 49
52 49
53 49
54 49
55 49
56 49
57 49
58 49
59 49
60 49
61 49
62 49
63 49
64 49
65 49
66 49
67 49
68 49
69 49
70 49
71 49
72 49
73 49
74 49
75 49
76 49
77 49
78 49
79 49
80 49
81 49
82 49
83 49
84 49
85 49
86 49
87 49
88 49
89 49
90 49
91 49
92 49
93 49
94 49
95 49
96 49
97 49
98 49
99 49
100 49
101 49
102 49
103 49
104 49
105 49
106 49
107 49
108 49
109 49
110 49
111 49
112 49
113 49
114 49
115 49
116 49
117 49
118 49
119 49
120 49
121 49
122 49
123 49
124 49
125 49
126 49
127 49
128 49
129 49
130 49
131 49
132 49
133 49
134 49
135 49
136 49
137 49
138 49
139 49
140 49
141 49
142 49
143 49
144 49
145 49
146 49
147 49
148 49
149 49
150 49
151 49
152 49
153 49
154 49
155 49
156 49
157 49
158 49
159 49
160 49
161 49
162 49
163 49
164 49
165 49
166 49
167 49
168 49
169 49
170 49
171 49
172 49
173 49
174 49
25 50
26 50
27 50
28 50
29 50
30 50
31 50
32 50
33 50
34 50
35 50
36 50
37 50
38 50
39 50
40 50
41 50
42 50
43 50
44 50
45 50
46 50
47 50
48 50
49 50
50 50
51 50
52 50
53 50
54 50
55 50
56 50
57 50
58 50
59 50
60 50
61 50
62 50
63 50
64 50
65 50
66 50
67 50
68 50
69 50
70 50
71 50
72 50
73 50
74 50
75 50
76 50
77 50
78 50
79 50
80 50
81 50
82 50
83 50
84 50
85 50
86 50
87 50
88 50
89 50
90 50
91 50
92 50
93 50
94 50
95 50
96 50
97 50
98 50
99 50
100 50
101 50
102 50
103 50
104 50
105 50
106 50
107 50
108 50
109 50
110 50
111 50
112 50
113 50
114 50
115 50
116 50
117 50
118 50
119 50
120 50
121 50
122 50
123 50
124 50
125 50
126 50
127 50
128 50
129 50
130 50
131 50
132 50
133 50
134 50
135 50
136 50
137 50
138 50
139 50
140 50
141 50
142 50
143 50
144 50
145 50
146 50
147 50
148 50
149 50
150 50
151 50
152 50
153 50
154 50
155 50
156 50
157 50
158 50
159 50
160 50
161 50
162 50
163 50
164 50
165 50
166 50
167 50
168 50
169 50
170 50
171 50
172 50
173 50
174 50
25 51
26 51
27 51
28 51
29 51
30 51
31 51
32 51
33 51
34 51
35 51
36 51
37 51
38 51
39 51
40 51
41 51
42 51
43 51
44 51
45 51
46 51
47 51
48 51
49 51
50 51
51 51
52 51
53 51
54 51
55 51
56 51
57 51
58 51
59 51
60 51
61 51
62 51
63 51
64 51
65 51
66 51
67 51
68 51
69 51
70 51
71 51
72 51
73 51
74 51
75 51
76 51
77 51
78 51
79 51
80 51
81 51
82 51
83 51
84 51
85 51
86 51
87 51
88 51
89 51
90 51
91 51
92 51
93 51
94 51
95 51
96 51
97 51
98 51
99 51
100 51
101 51
102 51
103 51
104 51
105 51
106 51
107 51
108 51
109 51
110 51
111 51
112 51
113 51
114 51
115 51
116 51
117 51
118 51
119 51
120 51
121 51
122 51
123 51
124 51
125 51
126 51
127 51
128 51
129 51
130 51
131 51
132 51
133 51
134 51
135 51
136 51
137 51
138 51
139 51
140 51
141 51
142 51
143 51
144 51
145 51
146 51
147 51
148 51
149 51
150 51
151 51
152 51
153 51
154 51
155 51
156 51
157 51
158 51
159 51
160 51
161 51
162 51
163 51
164 51
165 51
166 51
167 51
168 51
169 51
170 51
171 51
172 51
173 51
174 51
25 52
26 52
27 52
28 52
29 52
30 52
31 52
32 52
33 52
34 52
35 52
36 52
37 52
38 52
39 52
40 52
41 52
42 52
43 52
44 52
45 52
46 52
47 52
48 52
49 52
50 52
51 52
52 52
53 52
54 52
55 52
56 52
57 52
58 52
59 52
60 52
61 52
62 52
63 52
64 52
65 52
66 52
67 52
68 52
69 52
70 52
71 52
72 52
73 52
74 52
75 52
76 52
77 52
78 52
79 52
80 52
81 52
82 52
83 52
84 52
85 52
86 52
87 52
88 52
89 52
90 52
91 52
92 52
93 52
94 52
95 52
96 52
97 52
98 52
99 52
100 52
101 52
102 52
103 52
104 52
105 52
106 52
107 52
108 52
109 52
110 52
111 52
112 52
113 52
114 52
115 52
116 52
117 52
118 52
119 52
120 52
121 52
122 52
123 52
124 52
125 52
126 52
127 52
128 52
129 52
130 52
131 52
132 52
133 52
134 52
135 52
136 52
137 52
138 52
139 52
140 52
141 52
142 52
143 52
144 52
145 52
146 52
147 52
148 52
149 52
150 52
151 52
152 52
153 52
154 52
155 52
156 52
157 52
158 52
159 52
160 52
161 52
162 52
163 52
164 52
165 52
166 52
167 52
168 52
169 52
170 52
171 52
172 52
173 52
174 52
25 53
26 53
27 53
28 53
29 53
30 53
31 53
32 53
33 53
34 53
35 53
36 53
37 53
38 53
39 53
40 53
41 53
42 53
43 53
44 53
45 53
46 53
47 53
48 53
49 53
50 53
51 53
52 53
53 53
54 53
55 53
56 53
57 53
58 53
59 53
60 53
61 53
62 53
63 53
64 53
65 53
66 53
67 53
68 53
69 53
70 53
71 53
72 53
73 53
74 53
75 53
76 53
77 53
78 53
79 53
80 53
81 53
82 53
83 53
84 53
85 53
86 53
87 53
88 53
89 53
90 53
91 53
92 53
93 53
94 53
95 53
96 53
97 53
98 53
99 53
100 53
101 53
102 53
103 53
104 53
105 53
106 53
107 53
108 53
109 53
110 53
111 53
112 53
113 53
114 53
115 53
116 53
117 53
118 53
119 53
120 53
121 53
122 53
123 53
124 53
125 53
126 53
127 53
128 53
129 53
130 53
131 53
132 53
133 53
134 53
135 53
136 53
137 53
138 53
139 53
140 53
141 53
142 53
143 53
144 53
145 53
146 53
147 53
148 53
149 53
150 53
151 53
152 53
153 53
154 53
155 53
156 53
157 53
158 53
159 53
160 53
161 53
162 53
163 53
164 53
165 53
166 53
167 53
168 53
169 53
170 53
171 53
172 53
173 53
174 53
25 54
26 54
27 54
28 54
29 54
30 54
31 54
32 54
33 54
34 54
35 54
36 54
37 54
38 54
39 54
40 54
41 54
42 54
43 54
44 54
45 54
46 54
47 54
48 54
49 54
50 54
51 54
52 54
53 54
54 54
55 54
56 54
57 54
58 54
59 54
60 54
61 54
62 54
63 54
64 54
65 54
66 54
67 54
68 54
69 54
70 54
71 54
72 54
73 54
74 54
75 54
76 54
77 54
78 54
79 54
80 54
81 54
82 54
83 54
84 54
85 54
86 54
87 54
88 54
89 54
90 54
91 54
92 54
93 54
94 54
95 54
96 54
97 54
98 54
99 54
100 54
101 54
102 54
103 54
104 54
105 54
106 54
107 54
108 54
109 54
110 54
111 54
112 54
113 54
114 54
115 54
116 54
117 54
118 54
119 54
120 54
121 54
122 54
123 54
124 54
125 54
126 54
127 54
128 54
129 54
130 54
131 54
132 54
133 54
134 54
135 54
136 54
137 54
138 54
139 54
140 54
141 54
142 54
143 54
144 54
145 54
146 54
147 54
148 54
149 54
150 54
151 54
152 54
153 54
154 54
155 54
156 54
157 54
158 54
159 54
160 54
161 54
162 54
163 54
164 54
165 54
166 54
167 54
168 54
169 54
170 54
171 54
172 54
173 54
174 54
25 55
26 55
27 55
28 55
29 55
30 55
31 55
32 55
33 55
34 55
35 55
36 55
37 55
38 55
39 55
40 55
41 55
42 55
43 55
44 55
45 55
46 55
47 55
48 55
49 55
50 55
51 55
52 55
53 55
54 55
55 55
56 55
57 55
58 55
59 55
60 55
61 55
62 55
63 55
64 55
65 55
66 55
67 55
68 55
69 55
70 55
71 55
72 55
73 55
74 55
75 55
76 55
77 55
78 55
79 55
80 55
81 55
82 55
83 55
84 55
85 55
86 55
87 55
88 55
89 55
90 55
91 55
92 55
93 55
94 55
95 55
96 55
97 55
98 55
99 55
100 55
101 55
102 55
103 55
104 55
105 55
106 55
107 55
108 55
109 55
110 55
111 55
112 55
113 55
114 55
115 55
116 55
117 55
118 55
119 55
120 55
121 55
122 55
123 55
124 55
125 55
126 55
127 55
128 55
129 55
130 55
131 55
132 55
133 55
134 55
135 55
136 55
137 55
138 55
139 55
140 55
141 55
142 55
143 55
144 55
145 55
146 55
147 55
148 55
149 55
150 55
151 55
152 55
153 55
154 55
155 55
156 55
157 55
158 55
159 55
160 55
161 55
162 55
163 55
164 55
165 55
166 55
167 55
168 55
169 55
170 55
171 55
172 55
173 55
174 55
25 56
26 56
27 56
28 56
29 56
30 56
31 56
32 56
33 56
34 56
35 56
36 56
37 56
38 56
39 56
40 56
41 56
42 56
43 56
44 56
45 56
46 56
47 56
48 56
49 56
50 56
51 56
52 56
53 56
54 56
55 56
56 56
57 56
58 56
59 56
60 56
61 56
62 56
63 56
64 56
65 56
66 56
67 56
68 56
69 56
70 56
71 56
72 56
73 56
74 56
75 56
76 56
77 56
78 56
79 56
80 56
81 56
82 56
83 56
84 56
85 56
86 56
87 56
88 56
89 56
90 56
91 56
92 56
93 56
94 56
95 56
96 56
97 56
98 56
99 56
100 56
101 56
102 56
103 56
104 56
105 56
106 56
107 56
108 56
109 56
110 56
111 56
112 56
113 56
114 56
115 56
116 56
117 56
118 56
119 56
120 56
121 56
122 56
123 56
124 56
125 56
126 56
127 56
128 56
129 56
130 56
131 56
132 56
133 56
134 56
135 56
136 56
137 56
138 56
139 56
140 56
141 56
142 56
143 56
144 56
145 56
146 56
147 56
148 56
149 56
150 56
151 56
152 56
153 56
154 56
155 56
156 56
157 56
158 56
159 56
160 56
161 56
162 56
163 56
164 56
165 56
166 56
167 56
168 56
169 56
170 56
171 56
172 56
173 56
174 56
25 57
26 57
27 57
28 57
29 57
30 57
31 57
32 57
33 57
34 57
35 57
36 57
37 57
38 57
39 57
40 57
41 57
42 57
43 57
44 57
45 57
46 57
47 57
48 57
49 57
50 57
51 57
52 57
53 57
54 57
55 57
56 57
57 57
58 57
59 57
60 57
61 57
62 57
63 57
64 57
65 57
66 57
67 57
68 57
69 57
70 57
71 57
72 57
73 57
74 57
75 57
76 57
77 57
78 57
79 57
80 57
81 57
82 57
83 57
84 57
85 57
86 57
87 57
88 57
89 57
90 57
91 57
92 57
93 57
94 57
95 57
96 57
97 57
98 57
99 57
100 57
101 57
102 57
103 57
104 57
105 57
106 57
107 57
108 57
109 57
110 57
111 57
112 57
113 57
114 57
115 57
116 57
117 57
118 57
119 57
120 57
121 57
122 57
123 57
124 57
125 57
126 57
127 57
128 57
129 57
130 57
131 57
132 57
133 57
134 57
135 57
136 57
137 57
138 57
139 57
140 57
141 57
142 57
143 57
144 57
145 57
146 57
147 57
148 57
149 57
150 57
151 57
152 57
153 57
154 57
155 57
156 57
157 57
158 57
159 57
160 57
161 57
162 57
163 57
164 57
165 57
166 57
167 57
168 57
169 57
170 57
171 57
172 57
173 57
174 57
25 58
26 58
27 58
28 58
29 58
30 58
31 58
32 58
33 58
34 58
35 58
36 58
37 58
38 58
39 58
40 58
41 58
42 58
43 58
44 58
45 58
46 58
47 58
48 58
49 58
50 58
51 58
52 58
53 58
54 58
55 58
56 58
57 58
58 58
59 58
60 58
61 58
62 58
63 58
64 58
65 58
66 58
67 58
68 58
69 58
70 58
71 58
72 58
73 58
74 58
75 58
76 58
77 58
78 58
79 58
80 58
81 58
82 58
83 58
84 58
85 58
86 58
87 58
88 58
89 58
90 58
91 58
92 58
93 58
94 58
95 58
96 58
97 58
98 58
99 58
100 58
101 58
102 58
103 58
104 58
105 58
106 58
107 58
108 58
109 58
110 58
111 58
112 58
113 58
114 58
115 58
116 58
117 58
118 58
119 58
120 58
121 58
122 58
123 58
124 58
125 58
126 58
127 58
128 58
129 58
130 58
131 58
132 58
133 58
134 58
135 58
136 58
137 58
138 58
139 58
140 58
141 58
142 58
143 58
144 58
145 58
146 58
147 58
148 58
149 58
150 58
151 58
152 58
153 58
154 58
155 58
156 58
157 58
158 58
159 58
160 58
161 58
162 58
163 58
164 58
165 58
166 58
167 58
168 58
169 58
170 58
171 58
172 58
173 58
174 58
25 59
26 59
27 59
28 59
29 59
30 59
31 59
32 59
33 59
34 59
35 59
36 59
37 59
38 59
39 59
40 59
41 59
42 59
43 59
44 59
45 59
46 59
47 59
48 59
49 59
50 59
51 59
52 59
53 59
54 59
55 59
56 59
57 59
58 59
59 59
60 59
61 59
62 59
63 59
64 59
65 59
66 59
67 59
68 59
69 59
70 59
71 59
72 59
73 59
74 59
75 59
76 59
77 59
78 59
79 59
80 59
81 59
82 59
83 59
84 59
85 59
86 59
87 59
88 59
89 59
90 59
91 59
92 59
93 59
94 59
95 59
96 59
97 59
98 59
99 59
100 59
101 59
102 59
103 59
104 59
105 59
106 59
107 59
108 59
109 59
110 59
111 59
112 59
113 59
114 59
115 59
116 59
117 59
118 59
119 59
120 59
121 59
122 59
123 59
124 59
125 59
126 59
127 59
128 59
129 59
130 59
131 59
132 59
133 59
134 59
135 59
136 59
137 59
138 59
139 59
140 59
141 59
142 59
143 59
144 59
145 59
146 59
147 59
148 59
149 59
150 59
151 59
152 59
153 59
154 59
155 59
156 59
157 59
158 59
159 59
160 59
161 59
162 59
163 59
164 59
165 59
166 59
167 59
168 59
169 59
170 59
171 59
172 59
173 59
174 59
25 60
26 60
27 60
28 60
29 60
30 60
31 60
32 60
33 60
34 60
35 60
36 60
37 60
38 60
39 60
40 60
41 60
42 60
43 60
44 60
45 60
46 60
47 60
48 60
49 60
50 60
51 60
52 60
53 60
54 60
55 60
56 60
57 60
58 60
59 60
60 60
61 60
62 60
63 60
64 60
65 60
66 60
67 60
68 60
69 60
70 60
71 60
72 60
73 60
74 60
75 60
76 60
77 60
78 60
79 60
80 60
81 60
82 60
83 60
84 60
85 60
86 60
87 60
88 60
89 60
90 60
91 60
92 60
93 60
94 60
95 60
96 60
97 60
98 60
99 60
100 60
101 60
102 60
103 60
104 60
105 60
106 60
107 60
108 60
109 60
110 60
111 60
112 60
113 60
114 60
115 60
116 60
117 60
118 60
119 60
120 60
121 60
122 60
123 60
124 60
125 60
126 60
127 60
128 60
129 60
130 60
131 60
132 60
133 60
134 60
135 60
136 60
137 60
138 60
139 60
140 60
141 60
142 60
143 60
144 60
145 60
146 60
147 60
148 60
149 60
150 60
151 60
152 60
153 60
154 60
155 60
156 60
157 60
158 60
159 60
160 60
161 60
162 60
163 60
164 60
165 60
166 60
167 60
168 60
169 60
170 60
171 60
172 60
173 60
174 60
25 61
26 61
27 61
28 61
29 61
30 61
31 61
32 61
33 61
34 61
35 61
36 61
37 61
38 61
39 61
40 61
41 61
42 61
43 61
44 61
45 61
46 61
47 61
48 61
49 61
50 61
51 61
52 61
53 61
54 61
55 61
56 61
57 61
58 61
59 61
60 61
61 61
62 61
63 61
64 61
65 61
66 61
67 61
68 61
69 61
70 61
71 61
72 61
73 61
74 61
75 61
76 61
77 61
78 61
79 61
80 61
81 61
82 61
83 61
84 61
85 61
86 61
87 61
88 61
89 61
90 61
91 61
92 61
93 61
94 61
95 61
96 61
97 61
98 61
99 61
100 61
101 61
102 61
103 61
104 61
105 61
106 61
107 61
108 61
109 61
110 61
111 61
112 61
113 61
114 61
115 61
116 61
117 61
118 61
119 61
120 61
121 61
122 61
123 61
124 61
125 61
126 61
127 61
128 61
129 61
130 61
131 61
132 61
133 61
134 61
135 61
136 61
137 61
138 61
139 61
140 61
141 61
142 61
143 61
144 61
145 61
146 61
147 61
148 61
149 61
150 61
151 61
152 61
153 61
154 61
155 61
156 61
157 61
158 61
159 61
160 61
161 61
162 61
163 61
164 61
165 61
166 61
167 61
168 61
169 61
170 61
171 61
172 61
173 61
174 61
25 62
26 62
27 62
28 62
29 62
30 62
31 62
32 62
33 62
34 62
35 62
36 62
37 62
38 62
39 62
40 62
41 62
42 62
43 62
44 62
45 62
46 62
47 62
48 62
49 62
50 62
51 62
52 62
53 62
54 62
55 62
56 62
57 62
58 62
59 62
60 62
61 62
62 62
63 62
64 62
65 62
66 62
67 62
68 62
69 62
70 62
71 62
72 62
73 62
74 62
75 62
76 62
77 62
78 62
79 62
80 62
81 62
82 62
83 62
84 62
85 62
86 62
87 62
88 62
89 62
90 62
91 62
92 62
93 62
94 62
95 62
96 62
97 62
98 62
99 62
100 62
101 62
102 62
103 62
104 62
105 62
106 62
107 62
108 62
109 62
110 62
111 62
112 62
113 62
114 62
115 62
116 62
117 62
118 62
119 62
120 62
121 62
122 62
123 62
124 62
125 62
126 62
127 62
128 62
129 62
130 62
131 62
132 62
133 62
134 62
135 62
136 62
137 62
138 62
139 62
140 62
141 62
142 62
143 62
144 62
145 62
146 62
147 62
148 62
149 62
150 62
151 62
152 62
153 62
154 62
155 62
156 62
157 62
158 62
159 62
160 62
161 62
162 62
163 62
164 62
165 62
166 62
167 62
168 62
169 62
170 62
171 62
172 62
173 62
174 62
25 63
26 63
27 63
28 63
29 63
30 63
31 63
32 63
33 63
34 63
35 63
36 63
37 63
38 63
39 63
40 63
41 63
42 63
43 63
44 63
45 63
46 63
47 63
48 63
49 63
50 63
51 63
52 63
53 63
54 63
55 63
56 63
57 63
58 63
59 63
60 63
61 63
62 63
63 63
64 63
65 63
66 63
67 63
68 63
69 63
70 63
71 63
72 63
73 63
74 63
75 63
76 63
77 63
78 63
79 63
80 63
81 63
82 63
83 63
84 63
85 63
86 63
87 63
88 63
89 63
90 63
91 63
92 63
93 63
94 63
95 63
96 63
97 63
98 63
99 63
100 63
101 63
102 63
103 63
104 63
105 63
106 63
107 63
108 63
109 63
110 63
111 63
112 63
113 63
114 63
115 63
116 63
117 63
118 63
119 63
120 63
121 63
122 63
123 63
124 63
125 63
126 63
127 63
128 63
129 63
130 63
131 63
132 63
133 63
134 63
135 63
136 63
137 63
138 63
139 63
140 63
141 63
142 63
143 63
144 63
145 63
146 63
147 63
148 63
149 63
150 63
151 63
152 63
153 63
154 63
155 63
156 63
157 63
158 63
159 63
160 63
161 63
162 63
163 63
164 63
165 63
166 63
167 63
168 63
169 63
170 63
171 63
172 63
173 63
174 63
25 64
26 64
27 64
28 64
29 64
30 64
31 64
32 64
33 64
34 64
35 64
36 64
37 64
38 64
39 64
40 64
41 64
42 64
43 64
44 64
45 64
46 64
47 64
48 64
49 64
50 64
51 64
52 64
53 64
54 64
55 64
56 64
57 64
58 64
59 64
60 64
61 64
62 64
63 64
64 64
65 64
66 64
67 64
68 64
69 64
70 64
71 64
72 64
73 64
74 64
75 64
76 64
77 64
78 64
79 64
80 64
81 64
82 64
83 64
84 64
85 64
86 64
87 64
88 64
89 64
90 64
91 64
92 64
93 64
94 64
95 64
96 64
97 64
98 64
99 64
100 64
101 64
102 64
103 64
104 64
105 64
106 64
107 64
108 64
109 64
110 64
111 64
112 64
113 64
114 64
115 64
116 64
117 64
118 64
119 64
120 64
121 64
122 64
123 64
124 64
125 64
126 64
127 64
128 64
129 64
130 64
131 64
132 64
133 64
134 64
135 64
136 64
137 64
138 64
139 64
140 64
141 64
142 64
143 64
144 64
145 64
146 64
147 64
148 64
149 64
150 64
151 64
152 64
153 64
154 64
155 64
156 64
157 64
158 64
159 64
160 64
161 64
162 64
163 64
164 64
165 64
166 64
167 64
168 64
169 64
170 64
171 64
172 64
173 64
174 64
25 65
26 65
27 65
28 65
29 65
30 65
31 65
32 65
33 65
34 65
35 65
36 65
37 65
38 65
39 65
40 65
41 65
42 65
43 65
44 65
45 65
46 65
47 65
48 65
49 65
50 65
51 65
52 65
53 65
54 65
55 65
56 65
57 65
58 65
59 65
60 65
61 65
62 65
63 65
64 65
65 65
66 65
67 65
68 65
69 65
70 65
71 65
72 65
73 65
74 65
75 65
76 65
77 65
78 65
79 65
80 65
81 65
82 65
83 65
84 65
85 65
86 65
87 65
88 65
89 65
90 65
91 65
92 65
93 65
94 65
95 65
96 65
97 65
98 65
99 65
100 65
101 65
102 65
103 65
104 65
105 65
106 65
107 65
108 65
109 65
110 65
111 65
112 65
113 65
114 65
115 65
116 65
117 65
118 65
119 65
120 65
121 65
122 65
123 65
124 65
125 65
126 65
127 65
128 65
129 65
130 65
131 65
132 65
133 65
134 65
135 65
136 65
137 65
138 65
139 65
140 65
141 65
142 65
143 65
144 65
145 65
146 65
147 65
148 65
149 65
150 65
151 65
152 65
153 65
154 65
155 65
156 65
157 65
158 65
159 65
160 65
161 65
162 65
163 65
164 65
165 65
166 65
167 65
168 65
169 65
170 65
171 65
172 65
173 65
174 65
25 66
26 66
27 66
28 66
29 66
30 66
31 66
32 66
33 66
34 66
35 66
36 66
37 66
38 66
39 66
40 66
41 66
42 66
43 66
44 66
45 66
46 66
47 66
48 66
49 66
50 66
51 66
52 66
53 66
54 66
55 66
56 66
57 66
58 66
59 66
60 66
61 66
62 66
63 66
64 66
65 66
66 66
67 66
68 66
69 66
70 66
71 66
72 66
73 66
74 66
75 66
76 66
77 66
78 66
79 66
80 66
81 66
82 66
83 66
84 66
85 66
86 66
87 66
88 66
89 66
90 66
91 66
92 66
93 66
94 66
95 66
96 66
97 66
98 66
99 66
100 66
101 66
102 66
103 66
104 66
105 66
106 66
107 66
108 66
109 66
110 66
111 66
112 66
113 66
114 66
115 66
116 66
117 66
118 66
119 66
120 66
121 66
122 66
123 66
124 66
125 66
126 66
127 66
128 66
129 66
130 66
131 66
132 66
133 66
134 66
135 66
136 66
137 66
138 66
139 66
140 66
141 66
142 66
143 66
144 66
145 66
146 66
147 66
148 66
149 66
150 66
151 66
152 66
153 66
154 66
155 66
156 66
157 66
158 66
159 66
160 66
161 66
162 66
163 66
164 66
165 66
166 66
167 66
168 66
169 66
170 66
171 66
172 66
173 66
174 66
25 67
26 67
27 67
28 67
29 67
30 67
31 67
32 67
33 67
34 67
35 67
36 67
37 67
38 67
39 67
40 67
41 67
42 67
43 67
44 67
45 67
46 67
47 67
48 67
49 67
50 67
51 67
52 67
53 67
54 67
55 67
56 67
57 67
58 67
59 67
60 67
61 67
62 67
63 67
64 67
65 67
66 67
67 67
68 67
69 67
70 67
71 67
72 67
73 67
74 67
75 67
76 67
77 67
78 67
79 67
80 67
81 67
82 67
83 67
84 67
85 67
86 67
87 67
88 67
89 67
90 67
91 67
92 67
93 67
94 67
95 67
96 67
97 67
98 67
99 67
100 67
101 67
102 67
103 67
104 67
105 67
106 67
107 67
108 67
109 67
110 67
111 67
112 67
113 67
114 67
115 67
116 67
117 67
118 67
119 67
120 67
121 67
122 67
123 67
124 67
125 67
126 67
127 67
128 67
129 67
130 67
131 67
132 67
133 67
134 67
135 67
136 67
137 67
138 67
139 67
140 67
141 67
142 67
143 67
144 67
145 67
146 67
147 67
148 67
149 67
150 67
151 67
152 67
153 67
154 67
155 67
156 67
157 67
158 67
159 67
160 67
161 67
162 67
163 67
164 67
165 67
166 67
167 67
168 67
169 67
170 67
171 67
172 67
173 67
174 67
25 68
26 68
27 68
28 68
29 68
30 68
31 68
32 68
33 68
34 68
35 68
36 68
37 68
38 68
39 68
40 68
41 68
42 68
43 68
44 68
45 68
46 68
47 68
48 68
49 68
50 68
51 68
52 68
53 68
54 68
55 68
56 68
57 68
58 68
59 68
60 68
61 68
62 68
63 68
64 68
65 68
66 68
67 68
68 68
69 68
70 68
71 68
72 68
73 68
74 68
75 68
76 68
77 68
78 68
79 68
80 68
81 68
82 68
83 68
84 68
85 68
86 68
87 68
88 68
89 68
90 68
91 68
92 68
93 68
94 68
95 68
96 68
97 68
98 68
99 68
100 68
101 68
102 68
103 68
104 68
105 68
106 68
107 68
108 68
109 68
110 68
111 68
112 68
113 68
114 68
115 68
116 68
117 68
118 68
119 68
120 68
121 68
122 68
123 68
124 68
125 68
126 68
127 68
128 68
129 68
130 68
131 68
132 68
133 68
134 68
135 68
136 68
137 68
138 68
139 68
140 68
141 68
142 68
143 68
144 68
145 68
146 68
147 68
148 68
149 68
150 68
151 68
152 68
153 68
154 68
155 68
156 68
157 68
158 68
159 68
160 68
161 68
162 68
163 68
164 68
165 68
166 68
167 68
168 68
169 68
170 68
171 68
172 68
173 68
174 68
25 69
26 69
27 69
28 69
29 69
30 69
31 69
32 69
33 69
34 69
35 69
36 69
37 69
38 69
39 69
40 69
41 69
42 69
43 69
44 69
45 69
46 69
47 69
48 69
49 69
50 69
51 69
52 69
53 69
54 69
55 69
56 69
57 69
58 69
59 69
60 69
61 69
62 69
63 69
64 69
65 69
66 69
67 69
68 69
69 69
70 69
71 69
72 69
73 69
74 69
75 69
76 69
77 69
78 69
79 69
80 69
81 69
82 69
83 69
84 69
85 69
86 69
87 69
88 69
89 69
90 69
91 69
92 69
93 69
94 69
95 69
96 69
97 69
98 69
99 69
100 69
101 69
102 69
103 69
104 69
105 69
106 69
107 69
108 69
109 69
110 69
111 69
112 69
113 69
114 69
115 69
116 69
117 69
118 69
119 69
120 69
121 69
122 69
123 69
124 69
125 69
126 69
127 69
128 69
129 69
130 69
131 69
132 69
133 69
134 69
135 69
136 69
137 69
138 69
139 69
140 69
141 69
142 69
143 69
144 69
145 69
146 69
147 69
148 69
149 69
150 69
151 69
152 69
153 69
154 69
155 69
156 69
157 69
158 69
159 69
160 69
161 69
162 69
163 69
164 69
165 69
166 69
167 69
168 69
169 69
170 69
171 69
172 69
173 69
174 69
25 70
26 70
27 70
28 70
29 70
30 70
31 70
32 70
33 70
34 70
35 70
36 70
37 70
38 70
39 70
40 70
41 70
42 70
43 70
44 70
45 70
46 70
47 70
48 70
49 70
50 70
51 70
52 70
53 70
54 70
55 70
56 70
57 70
58 70
59 70
60 70
61 70
62 70
63 70
64 70
65 70
66 70
67 70
68 70
69 70
70 70
71 70
72 70
73 70
74 70
75 70
76 70
77 70
78 70
79 70
80 70
81 70
82 70
83 70
84 70
85 70
86 70
87 70
88 70
89 70
90 70
91 70
92 70
93 70
94 70
95 70
96 70
97 70
98 70
99 70
100 70
101 70
102 70
103 70
104 70
105 70
106 70
107 70
108 70
109 70
110 70
111 70
112 70
113 70
114 70
115 70
116 70
117 70
118 70
119 70
120 70
121 70
122 70
123 70
124 70
125 70
126 70
127 70
128 70
129 70
130 70
131 70
132 70
133 70
134 70
135 70
136 70
137 70
138 70
139 70
140 70
141 70
142 70
143 70
144 70
145 70
146 70
147 70
148 70
149 70
150 70
151 70
152 70
153 70
154 70
155 70
156 70
157 70
158 70
159 70
160 70
161 70
162 70
163 70
164 70
165 70
166 70
167 70
168 70
169 70
170 70
171 70
172 70
173 70
174 70
25 71
26 71
27 71
28 71
29 71
30 71
31 71
32 71
33 71
34 71
35 71
36 71
37 71
38 71
39 71
40 71
41 71
42 71
43 71
44 71
45 71
46 71
47 71
48 71
49 71
50 71
51 71
52 71
53 71
54 71
55 71
56 71
57 71
58 71
59 71
60 71
61 71
62 71
63 71
64 71
65 71
66 71
67 71
68 71
69 71
70 71
71 71
72 71
73 71
74 71
75 71
76 71
77 71
78 71
79 71
80 71
81 71
82 71
83 71
84 71
85 71
86 71
87 71
88 71
89 71
90 71
91 71
92 71
93 71
94 71
95 71
96 71
97 71
98 71
99 71
100 71
101 71
102 71
103 71
104 71
105 71
106 71
107 71
108 71
109 71
110 71
111 71
112 71
113 71
114 71
115 71
116 71
117 71
118 71
119 71
120 71
121 71
122 71
123 71
124 71
125 71
126 71
127 71
128 71
129 71
130 71
131 71
132 71
133 71
134 71
135 71
136 71
137 71
138 71
139 71
140 71
141 71
142 71
143 71
144 71
145 71
146 71
147 71
148 71
149 71
150 71
151 71
152 71
153 71
154 71
155 71
156 71
157 71
158 71
159 71
160 71
161 71
162 71
163 71
164 71
165 71
166 71
167 71
168 71
169 71
170 71
171 71
172 71
173 71
174 71
25 72
26 72
27 72
28 72
29 72
30 72
31 72
32 72
33 72
34 72
35 72
36 72
37 72
38 72
39 72
40 72
41 72
42 72
43 72
44 72
45 72
46 72
47 72
48 72
49 72
50 72
51 72
52 72
53 72
54 72
55 72
56 72
57 72
58 72
59 72
60 72
61 72
62 72
63 72
64 72
65 72
66 72
67 72
68 72
69 72
70 72
71 72
72 72
73 72
74 72
75 72
76 72
77 72
78 72
79 72
80 72
81 72
82 72
83 72
84 72
85 72
86 72
87 72
88 72
89 72
90 72
91 72
92 72
93 72
94 72
95 72
96 72
97 72
98 72
99 72
100 72
101 72
102 72
103 72
104 72
105 72
106 72
107 72
108 72
109 72
110 72
111 72
112 72
113 72
114 72
115 72
116 72
117 72
118 72
119 72
120 72
121 72
122 72
123 72
124 72
125 72
126 72
127 72
128 72
129 72
130 72
131 72
132 72
133 72
134 72
135 72
136 72
137 72
138 72
139 72
140 72
141 72
142 72
143 72
144 72
145 72
146 72
147 72
148 72
149 72
150 72
151 72
152 72
153 72
154 72
155 72
156 72
157 72
158 72
159 72
160 72
161 72
162 72
163 72
164 72
165 72
166 72
167 72
168 72
169 72
170 72
171 72
172 72
173 72
174 72
25 73
26 73
27 73
28 73
29 73
30 73
31 73
32 73
33 73
34 73
35 73
36 73
37 73
38 73
39 73
40 73
41 73
42 73
43 73
44 73
45 73
46 73
47 73
48 73
49 73
50 73
51 73
52 73
53 73
54 73
55 73
56 73
57 73
58 73
59 73
60 73
61 73
62 73
63 73
64 73
65 73
66 73
67 73
68 73
69 73
70 73
71 73
72 73
73 73
74 73
75 73
76 73
77 73
78 73
79 73
80 73
81 73
82 73
83 73
84 73
85 73
86 73
87 73
88 73
89 73
90 73
91 73
92 73
93 73
94 73
95 73
96 73
97 73
98 73
99 73
100 73
101 73
102 73
103 73
104 73
105 73
106 73
107 73
108 73
109 73
110 73
111 73
112 73
113 73
114 73
115 73
116 73
117 73
118 73
119 73
120 73
121 73
122 73
123 73
124 73
125 73
126 73
127 73
128 73
129 73
130 73
131 73
132 73
133 73
134 73
135 73
136 73
137 73
138 73
139 73
140 73
141 73
142 73
143 73
144 73
145 73
146 73
147 73
148 73
149 73
150 73
151 73
152 73
153 73
154 73
155 73
156 73
157 73
158 73
159 73
160 73
161 73
162 73
163 73
164 73
165 73
166 73
167 73
168 73
169 73
170 73
171 73
172 73
173 73
174 73
25 74
26 74
27 74
28 74
29 74
30 74
31 74
32 74
33 74
34 74
35 74
36 74
37 74
38 74
39 74
40 74
41 74
42 74
43 74
44 74
45 74
46 74
47 74
48 74
49 74
50 74
51 74
52 74
53 74
54 74
55 74
56 74
57 74
58 74
59 74
60 74
61 74
62 74
63 74
64 74
65 74
66 74
67 74
68 74
69 74
70 74
71 74
72 74
73 74
74 74
75 74
76 74
77 74
78 74
79 74
80 74
81 74
82 74
83 74
84 74
85 74
86 74
87 74
88 74
89 74
90 74
91 74
92 74
93 74
94 74
95 74
96 74
97 74
98 74
99 74
100 74
101 74
102 74
103 74
104 74
105 74
106 74
107 74
108 74
109 74
110 74
111 74
112 74
113 74
114 74
115 74
116 74
117 74
118 74
119 74
120 74
121 74
122 74
123 74
124 74
125 74
126 74
127 74
128 74
129 74
130 74
131 74
132 74
133 74
134 74
135 74
136 74
137 74
138 74
139 74
140 74
141 74
142 74
143 74
144 74
145 74
146 74
147 74
148 74
149 74
150 74
151 74
152 74
153 74
154 74
155 74
156 74
157 74
158 74
159 74
160 74
161 74
162 74
163 74
164 74
165 74
166 74
167 74
168 74
169 74
170 74
171 74
172 74
173 74
174 74
25 75
26 75
27 75
28 75
29 75
30 75
31 75
32 75
33 75
34 75
35 75
36 75
37 75
38 75
39 75
40 75
41 75
42 75
43 75
44 75
45 75
46 75
47 75
48 75
49 75
50 75
51 75
52 75
53 75
54 75
55 75
56 75
57 75
58 75
59 75
60 75
61 75
62 75
63 75
64 75
65 75
66 75
67 75
68 75
69 75
70 75
71 75
72 75
73 75
74 75
75 75
76 75
77 75
78 75
79 75
80 75
81 75
82 75
83 75
84 75
85 75
86 75
87 75
88 75
89 75
90 75
91 75
92 75
93 75
94 75
95 75
96 75
97 75
98 75
99 75
100 75
101 75
102 75
103 75
104 75
105 75
106 75
107 75
108 75
109 75
110 75
111 75
112 75
113 75
114 75
115 75
116 75
117 75
118 75
119 75
120 75
121 75
122 75
123 75
124 75
125 75
126 75
127 75
128 75
129 75
130 75
131 75
132 75
133 75
134 75
135 75
136 75
137 75
138 75
139 75
140 75
141 75
142 75
143 75
144 75
145 75
146 75
147 75
148 75
149 75
150 75
151 75
152 75
153 75
154 75
155 75
156 75
157 75
158 75
159 75
160 75
161 75
162 75
163 75
164 75
165 75
166 75
167 75
168 75
169 75
170 75
171 75
172 75
173 75
174 75
25 76
26 76
27 76
28 76
29 76
30 76
31 76
32 76
33 76
34 76
35 76
36 76
37 76
38 76
39 76
40 76
41 76
42 76
43 76
44 76
45 76
46 76
47 76
48 76
49 76
50 76
51 76
52 76
53 76
54 76
55 76
56 76
57 76
58 76
59 76
60 76
61 76
62 76
63 76
64 76
65 76
66 76
67 76
68 76
69 76
70 76
71 76
72 76
73 76
74 76
75 76
76 76
77 76
78 76
79 76
80 76
81 76
82 76
83 76
84 76
85 76
86 76
87 76
88 76
89 76
90 76
91 76
92 76
93 76
94 76
95 76
96 76
97 76
98 76
99 76
100 76
101 76
102 76
103 76
104 76
105 76
106 76
107 76
108 76
109 76
110 76
111 76
112 76
113 76
114 76
115 76
116 76
117 76
118 76
119 76
120 76
121 76
122 76
123 76
124 76
125 76
126 76
127 76
128 76
129 76
130 76
131 76
132 76
133 76
134 76
135 76
136 76
137 76
138 76
139 76
140 76
141 76
142 76
143 76
144 76
145 76
146 76
147 76
148 76
149 76
150 76
151 76
152 76
153 76
154 76
155 76
156 76
157 76
158 76
159 76
160 76
161 76
162 76
163 76
164 76
165 76
166 76
167 76
168 76
169 76
170 76
171 76
172 76
173 76
174 76
25 77
26 77
27 77
28 77
29 77
30 77
31 77
32 77
33 77
34 77
35 77
36 77
37 77
38 77
39 77
40 77
41 77
42 77
43 77
44 77
45 77
46 77
47 77
48 77
49 77
50 77
51 77
52 77
53 77
54 77
55 77
56 77
57 77
58 77
59 77
60 77
61 77
62 77
63 77
64 77
65 77
66 77
67 77
68 77
69 77
70 77
71 77
72 77
73 77
74 77
75 77
76 77
77 77
78 77
79 77
80 77
81 77
82 77
83 77
84 77
85 77
86 77
87 77
88 77
89 77
90 77
91 77
92 77
93 77
94 77
95 77
96 77
97 77
98 77
99 77
100 77
101 77
102 77
103 77
104 77
105 77
106 77
107 77
108 77
109 77
110 77
111 77
112 77
113 77
114 77
115 77
116 77
117 77
118 77
119 77
120 77
121 77
122 77
123 77
124 77
125 77
126 77
127 77
128 77
129 77
130 77
131 77
132 77
133 77
134 77
135 77
136 77
137 77
138 77
139 77
140 77
141 77
142 77
143 77
144 77
145 77
146 77
147 77
148 77
149 77
150 77
151 77
152 77
153 77
154 77
155 77
156 77
157 77
158 77
159 77
160 77
161 77
162 77
163 77
164 77
165 77
166 77
167 77
168 77
169 77
170 77
171 77
172 77
173 77
174 77
25 78
26 78
27 78
28 78
29 78
30 78
31 78
32 78
33 78
34 78
35 78
36 78
37 78
38 78
39 78
40 78
41 78
42 78
43 78
44 78
45 78
46 78
47 78
48 78
49 78
50 78
51 78
52 78
53 78
54 78
55 78
56 78
57 78
58 78
59 78
60 78
61 78
62 78
63 78
64 78
65 78
66 78
67 78
68 78
69 78
70 78
71 78
72 78
73 78
74 78
75 78
76 78
77 78
78 78
79 78
80 78
81 78
82 78
83 78
84 78
85 78
86 78
87 78
88 78
89 78
90 78
91 78
92 78
93 78
94 78
95 78
96 78
97 78
98 78
99 78
100 78
101 78
102 78
103 78
104 78
105 78
106 78
107 78
108 78
109 78
110 78
111 78
112 78
113 78
114 78
115 78
116 78
117 78
118 78
119 78
120 78
121 78
122 78
123 78
124 78
125 78
126 78
127 78
128 78
129 78
130 78
131 78
132 78
133 78
134 78
135 78
136 78
137 78
138 78
139 78
140 78
141 78
142 78
143 78
144 78
145 78
146 78
147 78
148 78
149 78
150 78
151 78
152 78
153 78
154 78
155 78
156 78
157 78
158 78
159 78
160 78
161 78
162 78
163 78
164 78
165 78
166 78
167 78
168 78
169 78
170 78
171 78
172 78
173 78
174 78
25 79
26 79
27 79
28 79
29 79
30 79
31 79
32 79
33 79
34 79
35 79
36 79
37 79
38 79
39 79
40 79
41 79
42 79
43 79
44 79
45 79
46 79
47 79
48 79
49 79
50 79
51 79
52 79
53 79
54 79
55 79
56 79
57 79
58 79
59 79
60 79
61 79
62 79
63 79
64 79
65 79
66 79
67 79
68 79
69 79
70 79
71 79
72 79
73 79
74 79
75 79
76 79
77 79
78 79
79 79
80 79
81 79
82 79
83 79
84 79
85 79
86 79
87 79
88 79
89 79
90 79
91 79
92 79
93 79
94 79
95 79
96 79
97 79
98 79
99 79
100 79
101 79
102 79
103 79
104 79
105 79
106 79
107 79
108 79
109 79
110 79
111 79
112 79
113 79
114 79
115 79
116 79
117 79
118 79
119 79
120 79
121 79
122 79
123 79
124 79
125 79
126 79
127 79
128 79
129 79
130 79
131 79
132 79
133 79
134 79
135 79
136 79
137 79
138 79
139 79
140 79
141 79
142 79
143 79
144 79
145 79
146 79
147 79
148 79
149 79
150 79
151 79
152 79
153 79
154 79
155 79
156 79
157 79
158 79
159 79
160 79
161 79
162 79
163 79
164 79
165 79
166 79
167 79
168 79
169 79
170 79
171 79
172 79
173 79
174 79
25 80
26 80
27 80
28 80
29 80
30 80
31 80
32 80
33 80
34 80
35 80
36 80
37 80
38 80
39 80
40 80
41 80
42 80
43 80
44 80
45 80
46 80
47 80
48 80
49 80
50 80
51 80
52 80
53 80
54 80
55 80
56 80
57 80
58 80
59 80
60 80
61 80
62 80
63 80
64 80
65 80
66 80
67 80
68 80
69 80
70 80
71 80
72 80
73 80
74 80
75 80
76 80
77 80
78 80
79 80
80 80
81 80
82 80
83 80
84 80
85 80
86 80
87 80
88 80
89 80
90 80
91 80
92 80
93 80
94 80
95 80
96 80
97 80
98 80
99 80
100 80
101 80
102 80
103 80
104 80
105 80
106 80
107 80
108 80
109 80
110 80
111 80
112 80
113 80
114 80
115 80
116 80
117 80
118 80
119 80
120 80
121 80
122 80
123 80
124 80
125 80
126 80
127 80
128 80
129 80
130 80
131 80
132 80
133 80
134 80
135 80
136 80
137 80
138 80
139 80
140 80
141 80
142 80
143 80
144 80
145 80
146 80
147 80
148 80
149 80
150 80
151 80
152 80
153 80
154 80
155 80
156 80
157 80
158 80
159 80
160 80
161 80
162 80
163 80
164 80
165 80
166 80
167 80
168 80
169 80
170 80
171 80
172 80
173 80
174 80
25 81
26 81
27 81
28 81
29 81
30 81
31 81
32 81
33 81
34 81
35 81
36 81
37 81
38 81
39 81
40 81
41 81
42 81
43 81
44 81
45 81
46 81
47 81
48 81
49 81
50 81
51 81
52 81
53 81
54 81
55 81
56 81
57 81
58 81
59 81
60 81
61 81
62 81
63 81
64 81
65 81
66 81
67 81
68 81
69 81
70 81
71 81
72 81
73 81
74 81
75 81
76 81
77 81
78 81
79 81
80 81
81 81
82 81
83 81
84 81
85 81
86 81
87 81
88 81
89 81
90 81
91 81
92 81
93 81
94 81
95 81
96 81
97 81
98 81
99 81
100 81
101 81
102 81
103 81
104 81
105 81
106 81
107 81
108 81
109 81
110 81
111 81
112 81
113 81
114 81
115 81
116 81
117 81
118 81
119 81
120 81
121 81
122 81
123 81
124 81
125 81
126 81
127 81
128 81
129 81
130 81
131 81
132 81
133 81
134 81
135 81
136 81
137 81
138 81
139 81
140 81
141 81
142 81
143 81
144 81
145 81
146 81
147 81
148 81
149 81
150 81
151 81
152 81
153 81
154 81
155 81
156 81
157 81
158 81
159 81
160 81
161 81
162 81
163 81
164 81
165 81
166 81
167 81
168 81
169 81
170 81
171 81
172 81
173 81
174 81
25 82
26 82
27 82
28 82
29 82
30 82
31 82
32 82
33 82
34 82
35 82
36 82
37 82
38 82
39 82
40 82
41 82
42 82
43 82
44 82
45 82
46 82
47 82
48 82
49 82
50 82
51 82
52 82
53 82
54 82
55 82
56 82
57 82
58 82
59 82
60 82
61 82
62 82
63 82
64 82
65 82
66 82
67 82
68 82
69 82
70 82
71 82
72 82
73 82
74 82
75 82
76 82
77 82
78 82
79 82
80 82
81 82
82 82
83 82
84 82
85 82
86 82
87 82
88 82
89 82
90 82
91 82
92 82
93 82
94 82
95 82
96 82
97 82
98 82
99 82
100 82
101 82
102 82
103 82
104 82
105 82
106 82
107 82
108 82
109 82
110 82
111 82
112 82
113 82
114 82
115 82
116 82
117 82
118 82
119 82
120 82
121 82
122 82
123 82
124 82
125 82
126 82
127 82
128 82
129 82
130 82
131 82
132 82
133 82
134 82
135 82
136 82
137 82
138 82
139 82
140 82
141 82
142 82
143 82
144 82
145 82
146 82
147 82
148 82
149 82
150 82
151 82
152 82
153 82
154 82
155 82
156 82
157 82
158 82
159 82
160 82
161 82
162 82
163 82
164 82
165 82
166 82
167 82
168 82
169 82
170 82
171 82
172 82
173 82
174 82
25 83
26 83
27 83
28 83
29 83
30 83
31 83
32 83
33 83
34 83
35 83
36 83
37 83
38 83
39 83
40 83
41 83
42 83
43 83
44 83
45 83
46 83
47 83
48 83
49 83
50 83
51 83
52 83
53 83
54 83
55 83
56 83
57 83
58 83
59 83
60 83
61 83
62 83
63 83
64 83
65 83
66 83
67 83
68 83
69 83
70 83
71 83
72 83
73 83
74 83
75 83
76 83
77 83
78 83
79 83
80 83
81 83
82 83
83 83
84 83
85 83
86 83
87 83
88 83
89 83
90 83
91 83
92 83
93 83
94 83
95 83
96 83
97 83
98 83
99 83
100 83
101 83
102 83
103 83
104 83
105 83
106 83
107 83
108 83
109 83
110 83
111 83
112 83
113 83
114 83
115 83
116 83
117 83
118 83
119 83
120 83
121 83
122 83
123 83
124 83
125 83
126 83
127 83
128 83
129 83
130 83
131 83
132 83
133 83
134 83
135 83
136 83
137 83
138 83
139 83
140 83
141 83
142 83
143 83
144 83
145 83
146 83
147 83
148 83
149 83
150 83
151 83
152 83
153 83
154 83
155 83
156 83
157 83
158 83
159 83
160 83
161 83
162 83
163 83
164 83
165 83
166 83
167 83
168 83
169 83
170 83
171 83
172 83
173 83
174 83
25 84
26 84
27 84
28 84
29 84
30 84
31 84
32 84
33 84
34 84
35 84
36 84
37 84
38 84
39 84
40 84
41 84
42 84
43 84
44 84
45 84
46 84
47 84
48 84
49 84
50 84
51 84
52 84
53 84
54 84
55 84
56 84
57 84
58 84
59 84
60 84
61 84
62 84
63 84
64 84
65 84
66 84
67 84
68 84
69 84
70 84
71 84
72 84
73 84
74 84
75 84
76 84
77 84
78 84
79 84
80 84
81 84
82 84
83 84
84 84
85 84
86 84
87 84
88 84
89 84
90 84
91 84
92 84
93 84
94 84
95 84
96 84
97 84
98 84
99 84
100 84
101 84
102 84
103 84
104 84
105 84
106 84
107 84
108 84
109 84
110 84
111 84
112 84
113 84
114 84
115 84
116 84
117 84
118 84
119 84
120 84
121 84
122 84
123 84
124 84
125 84
126 84
127 84
128 84
129 84
130 84
131 84
132 84
133 84
134 84
135 84
136 84
137 84
138 84
139 84
140 84
141 84
142 84
143 84
144 84
145 84
146 84
147 84
148 84
149 84
150 84
151 84
152 84
153 84
154 84
155 84
156 84
157 84
158 84
159 84
160 84
161 84
162 84
163 84
164 84
165 84
166 84
167 84
168 84
169 84
170 84
171 84
172 84
173 84
174 84
25 85
26 85
27 85
28 85
29 85
30 85
31 85
32 85
33 85
34 85
35 85
36 85
37 85
38 85
39 85
40 85
41 85
42 85
43 85
44 85
45 85
46 85
47 85
48 85
49 85
50 85
51 85
52 85
53 85
54 85
55 85
56 85
57 85
58 85
59 85
60 85
61 85
62 85
63 85
64 85
65 85
66 85
67 85
68 85
69 85
70 85
71 85
72 85
73 85
74 85
75 85
76 85
77 85
78 85
79 85
80 85
81 85
82 85
83 85
84 85
85 85
86 85
87 85
88 85
89 85
90 85
91 85
92 85
93 85
94 85
95 85
96 85
97 85
98 85
99 85
100 85
101 85
102 85
103 85
104 85
105 85
106 85
107 85
108 85
109 85
110 85
111 85
112 85
113 85
114 85
115 85
116 85
117 85
118 85
119 85
120 85
121 85
122 85
123 85
124 85
125 85
126 85
127 85
128 85
129 85
130 85
131 85
132 85
133 85
134 85
135 85
136 85
137 85
138 85
139 85
140 85
141 85
142 85
143 85
144 85
145 85
146 85
147 85
148 85
149 85
150 85
151 85
152 85
153 85
154 85
155 85
156 85
157 85
158 85
159 85
160 85
161 85
162 85
163 85
164 85
165 85
166 85
167 85
168 85
169 85
170 85
171 85
172 85
173 85
174 85
25 86
26 86
27 86
28 86
29 86
30 86
31 86
32 86
33 86
34 86
35 86
36 86
37 86
38 86
39 86
40 86
41 86
42 86
43 86
44 86
45 86
46 86
47 86
48 86
49 86
50 86
51 86
52 86
53 86
54 86
55 86
56 86
57 86
58 86
59 86
60 86
61 86
62 86
63 86
64 86
65 86
66 86
67 86
68 86
69 86
70 86
71 86
72 86
73 86
74 86
75 86
76 86
77 86
78 86
79 86
80 86
81 86
82 86
83 86
84 86
85 86
86 86
87 86
88 86
89 86
90 86
91 86
92 86
93 86
94 86
95 86
96 86
97 86
98 86
99 86
100 86
101 86
102 86
103 86
104 86
105 86
106 86
107 86
108 86
109 86
110 86
111 86
112 86
113 86
114 86
115 86
116 86
117 86
118 86
119 86
120 86
121 86
122 86
123 86
124 86
125 86
126 86
127 86
128 86
129 86
130 86
131 86
132 86
133 86
134 86
135 86
136 86
137 86
138 86
139 86
140 86
141 86
142 86
143 86
144 86
145 86
146 86
147 86
148 86
149 86
150 86
151 86
152 86
153 86
154 86
155 86
156 86
157 86
158 86
159 86
160 86
161 86
162 86
163 86
164 86
165 86
166 86
167 86
168 86
169 86
170 86
171 86
172 86
173 86
174 86
25 87
26 87
27 87
28 87
29 87
30 87
31 87
32 87
33 87
34 87
35 87
36 87
37 87
38 87
39 87
40 87
41 87
42 87
43 87
44 87
45 87
46 87
47 87
48 87
49 87
50 87
51 87
52 87
53 87
54 87
55 87
56 87
57 87
58 87
59 87
60 87
61 87
62 87
63 87
64 87
65 87
66 87
67 87
68 87
69 87
70 87
71 87
72 87
73 87
74 87
75 87
76 87
77 87
78 87
79 87
80 87
81 87
82 87
83 87
84 87
85 87
86 87
87 87
88 87
89 87
90 87
91 87
92 87
93 87
94 87
95 87
96 87
97 87
98 87
99 87
100 87
101 87
102 87
103 87
104 87
105 87
106 87
107 87
108 87
109 87
110 87
111 87
112 87
113 87
114 87
115 87
116 87
117 87
118 87
119 87
120 87
121 87
122 87
123 87
124 87
125 87
126 87
127 87
128 87
129 87
130 87
131 87
132 87
133 87
134 87
135 87
136 87
137 87
138 87
139 87
140 87
141 87
142 87
143 87
144 87
145 87
146 87
147 87
148 87
149 87
150 87
151 87
152 87
153 87
154 87
155 87
156 87
157 87
158 87
159 87
160 87
161 87
162 87
163 87
164 87
165 87
166 87
167 87
168 87
169 87
170 87
171 87
172 87
173 87
174 87
25 88
26 88
27 88
28 88
29 88
30 88
31 88
32 88
33 88
34 88
35 88
36 88
37 88
38 88
39 88
40 88
41 88
42 88
43 88
44 88
45 88
46 88
47 88
48 88
49 88
50 88
51 88
52 88
53 88
54 88
55 88
56 88
57 88
58 88
59 88
60 88
61 88
62 88
63 88
64 88
65 88
66 88
67 88
68 88
69 88
70 88
71 88
72 88
73 88
74 88
75 88
76 88
77 88
78 88
79 88
80 88
81 88
82 88
83 88
84 88
85 88
86 88
87 88
88 88
89 88
90 88
91 88
92 88
93 88
94 88
95 88
96 88
97 88
98 88
99 88
100 88
101 88
102 88
103 88
104 88
105 88
106 88
107 88
108 88
109 88
110 88
111 88
112 88
113 88
114 88
115 88
116 88
117 88
118 88
119 88
120 88
121 88
122 88
123 88
124 88
125 88
126 88
127 88
128 88
129 88
130 88
131 88
132 88
133 88
134 88
135 88
136 88
137 88
138 88
139 88
140 88
141 88
142 88
143 88
144 88
145 88
146 88
147 88
148 88
149 88
150 88
151 88
152 88
153 88
154 88
155 88
156 88
157 88
158 88
159 88
160 88
161 88
162 88
163 88
164 88
165 88
166 88
167 88
168 88
169 88
170 88
171 88
172 88
173 88
174 88
25 89
26 89
27 89
28 89
29 89
30 89
31 89
32 89
33 89
34 89
35 89
36 89
37 89
38 89
39 89
40 89
41 89
42 89
43 89
44 89
45 89
46 89
47 89
48 89
49 89
50 89
51 89
52 89
53 89
54 89
55 89
56 89
57 89
58 89
59 89
60 89
61 89
62 89
63 89
64 89
65 89
66 89
67 89
68 89
69 89
70 89
71 89
72 89
73 89
74 89
75 89
76 89
77 89
78 89
79 89
80 89
81 89
82 89
83 89
84 89
85 89
86 89
87 89
88 89
89 89
90 89
91 89
92 89
93 89
94 89
95 89
96 89
97 89
98 89
99 89
100 89
101 89
102 89
103 89
104 89
105 89
106 89
107 89
108 89
109 89
110 89
111 89
112 89
113 89
114 89
115 89
116 89
117 89
118 89
119 89
120 89
121 89
122 89
123 89
124 89
125 89
126 89
127 89
128 89
129 89
130 89
131 89
132 89
133 89
134 89
135 89
136 89
137 89
138 89
139 89
140 89
141 89
142 89
143 89
144 89
145 89
146 89
147 89
148 89
149 89
150 89
151 89
152 89
153 89
154 89
155 89
156 89
157 89
158 89
159 89
160 89
161 89
162 89
163 89
164 89
165 89
166 89
167 89
168 89
169 89
170 89
171 89
172 89
173 89
174 89
25 90
26 90
27 90
28 90
29 90
30 90
31 90
32 90
33 90
34 90
35 90
36 90
37 90
38 90
39 90
40 90
41 90
42 90
43 90
44 90
45 90
46 90
47 90
48 90
49 90
50 90
51 90
52 90
53 90
54 90
55 90
56 90
57 90
58 90
59 90
60 90
61 90
62 90
63 90
64 90
65 90
66 90
67 90
68 90
69 90
70 90
71 90
72 90
73 90
74 90
75 90
76 90
77 90
78 90
79 90
80 90
81 90
82 90
83 90
84 90
85 90
86 90
87 90
88 90
89 90
90 90
91 90
92 90
93 90
94 90
95 90
96 90
97 90
98 90
99 90
100 90
101 90
102 90
103 90
104 90
105 90
106 90
107 90
108 90
109 90
110 90
111 90
112 90
113 90
114 90
115 90
116 90
117 90
118 90
119 90
120 90
121 90
122 90
123 90
124 90
125 90
126 90
127 90
128 90
129 90
130 90
131 90
132 90
133 90
134 90
135 90
136 90
137 90
138 90
139 90
140 90
141 90
142 90
143 90
144 90
145 90
146 90
147 90
148 90
149 90
150 90
151 90
152 90
153 90
154 90
155 90
156 90
157 90
158 90
159 90
160 90
161 90
162 90
163 90
164 90
165 90
166 90
167 90
168 90
169 90
170 90
171 90
172 90
173 90
174 90
25 91
26 91
27 91
28 91
29 91
30 91
31 91
32 91
33 91
34 91
35 91
36 91
37 91
38 91
39 91
40 91
41 91
42 91
43 91
44 91
45 91
46 91
47 91
48 91
49 91
50 91
51 91
52 91
53 91
54 91
55 91
56 91
57 91
58 91
59 91
60 91
61 91
62 91
63 91
64 91
65 91
66 91
67 91
68 91
69 91
70 91
71 91
72 91
73 91
74 91
75 91
76 91
77 91
78 91
79 91
80 91
81 91
82 91
83 91
84 91
85 91
86 91
87 91
88 91
89 91
90 91
91 91
92 91
93 91
94 91
95 91
96 91
97 91
98 91
99 91
100 91
101 91
102 91
103 91
104 91
105 91
106 91
107 91
108 91
109 91
110 91
111 91
112 91
113 91
114 91
115 91
116 91
117 91
118 91
119 91
120 91
121 91
122 91
123 91
124 91
125 91
126 91
127 91
128 91
129 91
130 91
131 91
132 91
133 91
134 91
135 91
136 91
137 91
138 91
139 91
140 91
141 91
142 91
143 91
144 91
145 91
146 91
147 91
148 91
149 91
150 91
151 91
152 91
153 91
154 91
155 91
156 91
157 91
158 91
159 91
160 91
161 91
162 91
163 91
164 91
165 91
166 91
167 91
168 91
169 91
170 91
171 91
172 91
173 91
174 91
25 92
26 92
27 92
28 92
29 92
30 92
31 92
32 92
33 92
34 92
35 92
36 92
37 92
38 92
39 92
40 92
41 92
42 92
43 92
44 92
45 92
46 92
47 92
48 92
49 92
50 92
51 92
52 92
53 92
54 92
55 92
56 92
57 92
58 92
59 92
60 92
61 92
62 92
63 92
64 92
65 92
66 92
67 92
68 92
69 92
70 92
71 92
72 92
73 92
74 92
75 92
76 92
77 92
78 92
79 92
80 92
81 92
82 92
83 92
84 92
85 92
86 92
87 92
88 92
89 92
90 92
91 92
92 92
93 92
94 92
95 92
96 92
97 92
98 92
99 92
100 92
101 92
102 92
103 92
104 92
105 92
106 92
107 92
108 92
109 92
110 92
111 92
112 92
113 92
114 92
115 92
116 92
117 92
118 92
119 92
120 92
121 92
122 92
123 92
124 92
125 92
126 92
127 92
128 92
129 92
130 92
131 92
132 92
133 92
134 92
135 92
136 92
137 92
138 92
139 92
140 92
141 92
142 92
143 92
144 92
145 92
146 92
147 92
148 92
149 92
150 92
151 92
152 92
153 92
154 92
155 92
156 92
157 92
158 92
159 92
160 92
161 92
162 92
163 92
164 92
165 92
166 92
167 92
168 92
169 92
170 92
171 92
172 92
173 92
174 92
25 93
26 93
27 93
28 93
29 93
30 93
31 93
32 93
33 93
34 93
35 93
36 93
37 93
38 93
39 93
40 93
41 93
42 93
43 93
44 93
45 93
46 93
47 93
48 93
49 93
50 93
51 93
52 93
53 93
54 93
55 93
56 93
57 93
58 93
59 93
60 93
61 93
62 93
63 93
64 93
65 93
66 93
67 93
68 93
69 93
70 93
71 93
72 93
73 93
74 93
75 93
76 93
77 93
78 93
79 93
80 93
81 93
82 93
83 93
84 93
85 93
86 93
87 93
88 93
89 93
90 93
91 93
92 93
93 93
94 93
95 93
96 93
97 93
98 93
99 93
100 93
101 93
102 93
103 93
104 93
105 93
106 93
107 93
108 93
109 93
110 93
111 93
112 93
113 93
114 93
115 93
116 93
117 93
118 93
119 93
120 93
121 93
122 93
123 93
124 93
125 93
126 93
127 93
128 93
129 93
130 93
131 93
132 93
133 93
134 93
135 93
136 93
137 93
138 93
139 93
140 93
141 93
142 93
143 93
144 93
145 93
146 93
147 93
148 93
149 93
150 93
151 93
152 93
153 93
154 93
155 93
156 93
157 93
158 93
159 93
160 93
161 93
162 93
163 93
164 93
165 93
166 93
167 93
168 93
169 93
170 93
171 93
172 93
173 93
174 93
25 94
26 94
27 94
28 94
29 94
30 94
31 94
32 94
33 94
34 94
35 94
36 94
37 94
38 94
39 94
40 94
41 94
42 94
43 94
44 94
45 94
46 94
47 94
48 94
49 94
50 94
51 94
52 94
53 94
54 94
55 94
56 94
57 94
58 94
59 94
60 94
61 94
62 94
63 94
64 94
65 94
66 94
67 94
68 94
69 94
70 94
71 94
72 94
73 94
74 94
75 94
76 94
77 94
78 94
79 94
80 94
81 94
82 94
83 94
84 94
85 94
86 94
87 94
88 94
89 94
90 94
91 94
92 94
93 94
94 94
95 94
96 94
97 94
98 94
99 94
100 94
101 94
102 94
103 94
104 94
105 94
106 94
107 94
108 94
109 94
110 94
111 94
112 94
113 94
114 94
115 94
116 94
117 94
118 94
119 94
120 94
121 94
122 94
123 94
124 94
125 94
126 94
127 94
128 94
129 94
130 94
131 94
132 94
133 94
134 94
135 94
136 94
137 94
138 94
139 94
140 94
141 94
142 94
143 94
144 94
145 94
146 94
147 94
148 94
149 94
150 94
151 94
152 94
153 94
154 94
155 94
156 94
157 94
158 94
159 94
160 94
161 94
162 94
163 94
164 94
165 94
166 94
167 94
168 94
169 94
170 94
171 94
172 94
173 94
174 94
25 95
26 95
27 95
28 95
29 95
30 95
31 95
32 95
33 95
34 95
35 95
36 95
37 95
38 95
39 95
40 95
41 95
42 95
43 95
44 95
45 95
46 95
47 95
48 95
49 95
50 95
51 95
52 95
53 95
54 95
55 95
56 95
57 95
58 95
59 95
60 95
61 95
62 95
63 95
64 95
65 95
66 95
67 95
68 95
69 95
70 95
71 95
72 95
73 95
74 95
75 95
76 95
77 95
78 95
79 95
80 95
81 95
82 95
83 95
84 95
85 95
86 95
87 95
88 95
89 95
90 95
91 95
92 95
93 95
94 95
95 95
96 95
97 95
98 95
99 95
100 95
101 95
102 95
103 95
104 95
105 95
106 95
107 95
108 95
109 95
110 95
111 95
112 95
113 95
114 95
115 95
116 95
117 95
118 95
119 95
120 95
121 95
122 95
123 95
124 95
125 95
126 95
127 95
128 95
129 95
130 95
131 95
132 95
133 95
134 95
135 95
136 95
137 95
138 95
139 95
140 95
141 95
142 95
143 95
144 95
145 95
146 95
147 95
148 95
149 95
150 95
151 95
152 95
153 95
154 95
155 95
156 95
157 95
158 95
159 95
160 95
161 95
162 95
163 95
164 95
165 95
166 95
167 95
168 95
169 95
170 95
171 95
172 95
173 95
174 95
25 96
26 96
27 96
28 96
29 96
30 96
31 96
32 96
33 96
34 96
35 96
36 96
37 96
38 96
39 96
40 96
41 96
42 96
43 96
44 96
45 96
46 96
47 96
48 96
49 96
50 96
51 96
52 96
53 96
54 96
55 96
56 96
57 96
58 96
59 96
60 96
61 96
62 96
63 96
64 96
65 96
66 96
67 96
68 96
69 96
70 96
71 96
72 96
73 96
74 96
75 96
76 96
77 96
78 96
79 96
80 96
81 96
82 96
83 96
84 96
85 96
86 96
87 96
88 96
89 96
90 96
91 96
92 96
93 96
94 96
95 96
96 96
97 96
98 96
99 96
100 96
101 96
102 96
103 96
104 96
105 96
106 96
107 96
108 96
109 96
110 96
111 96
112 96
113 96
114 96
115 96
116 96
117 96
118 96
119 96
120 96
121 96
122 96
123 96
124 96
125 96
126 96
127 96
128 96
129 96
130 96
131 96
132 96
133 96
134 96
135 96
136 96
137 96
138 96
139 96
140 96
141 96
142 96
143 96
144 96
145 96
146 96
147 96
148 96
149 96
150 96
151 96
152 96
153 96
154 96
155 96
156 96
157 96
158 96
159 96
160 96
161 96
162 96
163 96
164 96
165 96
166 96
167 96
168 96
169 96
170 96
171 96
172 96
173 96
174 96
199 121
200 121
201 121
202 121
203 121
204 121
205 121
206 121
207 121
208 121
209 121
210 121
211 121
212 121
213 121
214 121
215 121
216 121
217 121
218 121
219 121
220 121
221 121
222 121
223 121
224 121
225 121
226 121
227 121
228 121
229 121
230 121
231 121
232 121
233 121
234 121
235 121
236 121
237 121
238 121
239 121
240 121
241 121
242 121
243 121
244 121
245 121
246 121
247 121
248 121
249 121
250 121
251 121
252 121
253 121
254 121
255 121
256 121
257 121
258 121
259 121
260 121
261 121
262 121
263 121
264 121
265 121
266 121
267 121
268 121
269 121
270 121
271 121
272 121
273 121
274 121
275 121
276 121
277 121
278 121
279 121
280 121
281 121
282 121
283 121
284 121
285 121
286 121
287 121
288 121
289 121
290 121
291 121
292 121
293 121
294 121
295 121
296 121
297 121
298 121
299 121
300 121
301 121
302 121
303 121
304 121
305 121
306 121
307 121
308 121
309 121
310 121
311 121
312 121
313 121
314 121
315 121
316 121
317 121
318 121
319 121
320 121
321 121
322 121
323 121
324 121
325 121
326 121
327 121
328 121
329 121
330 121
331 121
332 121
333 121
334 121
335 121
336 121
337 121
338 121
339 121
340 121
341 121
342 121
343 121
344 121
345 121
346 121
347 121
348 121
199 122
200 122
201 122
202 122
203 122
204 122
205 122
206 122
207 122
208 122
209 122
210 122
211 122
212 122
213 122
214 122
215 122
216 122
217 122
218 122
219 122
220 122
221 122
222 122
223 122
224 122
225 122
226 122
227 122
228 122
229 122
230 122
231 122
232 122
233 122
234 122
235 122
236 122
237 122
238 122
239 122
240 122
241 122
242 122
243 122
244 122
245 122
246 122
247 122
248 122
249 122
250 122
251 122
252 122
253 122
254 122
255 122
256 122
257 122
258 122
259 122
260 122
261 122
262 122
263 122
264 122
265 122
266 122
267 122
268 122
269 122
270 122
271 122
272 122
273 122
274 122
275 122
276 122
277 122
278 122
279 122
280 122
281 122
282 122
283 122
284 122
285 122
286 122
287 122
288 122
289 122
290 122
291 122
292 122
293 122
294 122
295 122
296 122
297 122
298 122
299 122
300 122
301 122
302 122
303 122
304 122
305 122
306 122
307 122
308 122
309 122
310 122
311 122
312 122
313 122
314 122
315 122
316 122
317 122
318 122
319 122
320 122
321 122
322 122
323 122
324 122
325 122
326 122
327 122
328 122
329 122
330 122
331 122
332 122
333 122
334 122
335 122
336 122
337 122
338 122
339 122
340 122
341 122
342 122
343 122
344 122
345 122
346 122
347 122
348 122
199 123
200 123
201 123
202 123
203 123
204 123
205 123
206 123
207 123
208 123
209 123
210 123
211 123
212 123
213 123
214 123
215 123
216 123
217 123
218 123
219 123
220 123
221 123
222 123
223 123
224 123
225 123
226 123
227 123
228 123
229 123
230 123
231 123
232 123
233 123
234 123
235 123
236 123
237 123
238 123
239 123
240 123
241 123
242 123
243 123
244 123
245 123
246 123
247 123
248 123
249 123
250 123
251 123
252 123
253 123
254 123
255 123
256 123
257 123
258 123
259 123
260 123
261 123
262 123
263 123
264 123
265 123
266 123
267 123
268 123
269 123
270 123
271 123
272 123
273 123
274 123
275 123
276 123
277 123
278 123
279 123
280 123
281 123
282 123
283 123
284 123
285 123
286 123
287 123
288 123
289 123
290 123
291 123
292 123
293 123
294 123
295 123
296 123
297 123
298 123
299 123
300 123
301 123
302 123
303 123
304 123
305 123
306 123
307 123
308 123
309 123
310 123
311 123
312 123
313 123
314 123
315 123
316 123
317 123
318 123
319 123
320 123
321 123
322 123
323 123
324 123
325 123
326 123
327 123
328 123
329 123
330 123
331 123
332 123
333 123
334 123
335 123
336 123
337 123
338 123
339 123
340 123
341 123
342 123
343 123
344 123
345 123
346 123
347 123
348 123
199 124
200 124
201 124
202 124
203 124
204 124
205 124
206 124
207 124
208 124
209 124
210 124
211 124
212 124
213 124
214 124
215 124
216 124
217 124
218 124
219 124
220 124
221 124
222 124
223 124
224 124
225 124
226 124
227 124
228 124
229 124
230 124
231 124
232 124
233 124
234 124
235 124
236 124
237 124
238 124
239 124
240 124
241 124
242 124
243 124
244 124
245 124
246 124
247 124
248 124
249 124
250 124
251 124
252 124
253 124
254 124
255 124
256 124
257 124
258 124
259 124
260 124
261 124
262 124
263 124
264 124
265 124
266 124
267 124
268 124
269 124
270 124
271 124
272 124
273 124
274 124
275 124
276 124
277 124
278 124
279 124
280 124
281 124
282 124
283 124
284 124
285 124
286 124
287 124
288 124
289 124
290 124
291 124
292 124
293 124
294 124
295 124
296 124
297 124
298 124
299 124
300 124
301 124
302 124
303 124
304 124
305 124
306 124
307 124
308 124
309 124
310 124
311 124
312 124
313 124
314 124
315 124
316 124
317 124
318 124
319 124
320 124
321 124
322 124
323 124
324 124
325 124
326 124
327 124
328 124
329 124
330 124
331 124
332 124
333 124
334 124
335 124
336 124
337 124
338 124
339 124
340 124
341 124
342 124
343 124
344 124
345 124
346 124
347 124
348 124
199 125
200 125
201 125
202 125
203 125
204 125
205 125
206 125
207 125
208 125
209 125
210 125
211 125
212 125
213 125
214 125
215 125
216 125
217 125
218 125
219 125
220 125
221 125
222 125
223 125
224 125
225 125
226 125
227 125
228 125
229 125
230 125
231 125
232 125
233 125
234 125
235 125
236 125
237 125
238 125
239 125
240 125
241 125
242 125
243 125
244 125
245 125
246 125
247 125
248 125
249 125
250 125
251 125
252 125
253 125
254 125
255 125
256 125
257 125
258 125
259 125
260 125
261 125
262 125
263 125
264 125
265 125
266 125
267 125
268 125
269 125
270 125
271 125
272 125
273 125
274 125
275 125
276 125
277 125
278 125
279 125
280 125
281 125
282 125
283 125
284 125
285 125
286 125
287 125
288 125
289 125
290 125
291 125
292 125
293 125
294 125
295 125
296 125
297 125
298 125
299 125
300 125
301 125
302 125
303 125
304 125
305 125
306 125
307 125
308 125
309 125
310 125
311 125
312 125
313 125
314 125
315 125
316 125
317 125
318 125
319 125
320 125
321 125
322 125
323 125
324 125
325 125
326 125
327 125
328 125
329 125
330 125
331 125
332 125
333 125
334 125
335 125
336 125
337 125
338 125
339 125
340 125
341 125
342 125
343 125
344 125
345 125
346 125
347 125
348 125
199 126
200 126
201 126
202 126
203 126
204 126
205 126
206 126
207 126
208 126
209 126
210 126
211 126
212 126
213 126
214 126
215 126
216 126
217 126
218 126
219 126
220 126
221 126
222 126
223 126
224 126
225 126
226 126
227 126
228 126
229 126
230 126
231 126
232 126
233 126
234 126
235 126
236 126
237 126
238 126
239 126
240 126
241 126
242 126
243 126
244 126
245 126
246 126
247 126
248 126
249 126
250 126
251 126
252 126
253 126
254 126
255 126
256 126
257 126
258 126
259 126
260 126
261 126
262 126
263 126
264 126
265 126
266 126
267 126
268 126
269 126
270 126
271 126
272 126
273 126
274 126
275 126
276 126
277 126
278 126
279 126
280 126
281 126
282 126
283 126
284 126
285 126
286 126
287 126
288 126
289 126
290 126
291 126
292 126
293 126
294 126
295 126
296 126
297 126
298 126
299 126
300 126
301 126
302 126
303 126
304 126
305 126
306 126
307 126
308 126
309 126
310 126
311 126
312 126
313 126
314 126
315 126
316 126
317 126
318 126
319 126
320 126
321 126
322 126
323 126
324 126
325 126
326 126
327 126
328 126
329 126
330 126
331 126
332 126
333 126
334 126
335 126
336 126
337 126
338 126
339 126
340 126
341 126
342 126
343 126
344 126
345 126
346 126
347 126
348 126
199 127
200 127
201 127
202 127
203 127
204 127
205 127
206 127
207 127
208 127
209 127
210 127
211 127
212 127
213 127
214 127
215 127
216 127
217 127
218 127
219 127
220 127
221 127
222 127
223 127
224 127
225 127
226 127
227 127
228 127
229 127
230 127
231 127
232 127
233 127
234 127
235 127
236 127
237 127
238 127
239 127
240 127
241 127
242 127
243 127
244 127
245 127
246 127
247 127
248 127
249 127
250 127
251 127
252 127
253 127
254 127
255 127
256 127
257 127
258 127
259 127
260 127
261 127
262 127
263 127
264 127
265 127
266 127
267 127
268 127
269 127
270 127
271 127
272 127
273 127
274 127
275 127
276 127
277 127
278 127
279 127
280 127
281 127
282 127
283 127
284 127
285 127
286 127
287 127
288 127
289 127
290 127
291 127
292 127
293 127
294 127
295 127
296 127
297 127
298 127
299 127
300 127
301 127
302 127
303 127
304 127
305 127
306 127
307 127
308 127
309 127
310 127
311 127
312 127
313 127
314 127
315 127
316 127
317 127
318 127
319 127
320 127
321 127
322 127
323 127
324 127
325 127
326 127
327 127
328 127
329 127
330 127
331 127
332 127
333 127
334 127
335 127
336 127
337 127
338 127
339 127
340 127
341 127
342 127
343 127
344 127
345 127
346 127
347 127
348 127
199 128
200 128
201 128
202 128
203 128
204 128
205 128
206 128
207 128
208 128
209 128
210 128
211 128
212 128
213 128
214 128
215 128
216 128
217 128
218 128
219 128
220 128
221 128
222 128
223 128
224 128
225 128
226 128
227 128
228 128
229 128
230 128
231 128
232 128
233 128
234 128
235 128
236 128
237 128
238 128
239 128
240 128
241 128
242 128
243 128
244 128
245 128
246 128
247 128
248 128
249 128
250 128
251 128
252 128
253 128
254 128
255 128
256 128
257 128
258 128
259 128
260 128
261 128
262 128
263 128
264 128
265 128
266 128
267 128
268 128
269 128
270 128
271 128
272 128
273 128
274 128
275 128
276 128
277 128
278 128
279 128
280 128
281 128
282 128
283 128
284 128
285 128
286 128
287 128
288 128
289 128
290 128
291 128
292 128
293 128
294 128
295 128
296 128
297 128
298 128
299 128
300 128
301 128
302 128
303 128
304 128
305 128
306 128
307 128
308 128
309 128
310 128
311 128
312 128
313 128
314 128
315 128
316 128
317 128
318 128
319 128
320 128
321 128
322 128
323 128
324 128
325 128
326 128
327 128
328 128
329 128
330 128
331 128
332 128
333 128
334 128
335 128
336 128
337 128
338 128
339 128
340 128
341 128
342 128
343 128
344 128
345 128
346 128
347 128
348 128
199 129
200 129
201 129
202 129
203 129
204 129
205 129
206 129
207 129
208 129
209 129
210 129
211 129
212 129
213 129
214 129
215 129
216 129
217 129
218 129
219 129
220 129
221 129
222 129
223 129
224 129
225 129
226 129
227 129
228 129
229 129
230 129
231 129
232 129
233 129
234 129
235 129
236 129
237 129
238 129
239 129
240 129
241 129
242 129
243 129
244 129
245 129
246 129
247 129
248 129
249 129
250 129
251 129
252 129
253 129
254 129
255 129
256 129
257 129
258 129
259 129
260 129
261 129
262 129
263 129
264 129
265 129
266 129
267 129
268 129
269 129
270 129
271 129
272 129
273 129
274 129
275 129
276 129
277 129
278 129
279 129
280 129
281 129
282 129
283 129
284 129
285 129
286 129
287 129
288 129
289 129
290 129
291 129
292 129
293 129
294 129
295 129
296 129
297 129
298 129
299 129
300 129
301 129
302 129
303 129
304 129
305 129
306 129
307 129
308 129
309 129
310 129
311 129
312 129
313 129
314 129
315 129
316 129
317 129
318 129
319 129
320 129
321 129
322 129
323 129
324 129
325 129
326 129
327 129
328 129
329 129
330 129
331 129
332 129
333 129
334 129
335 129
336 129
337 129
338 129
339 129
340 129
341 129
342 129
343 129
344 129
345 129
346 129
347 129
348 129
199 130
200 130
201 130
202 130
203 130
204 130
205 130
206 130
207 130
208 130
209 130
210 130
211 130
212 130
213 130
214 130
215 130
216 130
217 130
218 130
219 130
220 130
221 130
222 130
223 130
224 130
225 130
226 130
227 130
228 130
229 130
230 130
231 130
232 130
233 130
234 130
235 130
236 130
237 130
238 130
239 130
240 130
241 130
242 130
243 130
244 130
245 130
246 130
247 130
248 130
249 130
250 130
251 130
252 130
253 130
254 130
255 130
256 130
257 130
258 130
259 130
260 130
261 130
262 130
263 130
264 130
265 130
266 130
267 130
268 130
269 130
270 130
271 130
272 130
273 130
274 130
275 130
276 130
277 130
278 130
279 130
280 130
281 130
282 130
283 130
284 130
285 130
286 130
287 130
288 130
289 130
290 130
291 130
292 130
293 130
294 130
295 130
296 130
297 130
298 130
299 130
300 130
301 130
302 130
303 130
304 130
305 130
306 130
307 130
308 130
309 130
310 130
311 130
312 130
313 130
314 130
315 130
316 130
317 130
318 130
319 130
320 130
321 130
322 130
323 130
324 130
325 130
326 130
327 130
328 130
329 130
330 130
331 130
332 130
333 130
334 130
335 130
336 130
337 130
338 130
339 130
340 130
341 130
342 130
343 130
344 130
345 130
346 130
347 130
348 130
199 131
200 131
201 131
202 131
203 131
204 131
205 131
206 131
207 131
208 131
209 131
210 131
211 131
212 131
213 131
214 131
215 131
216 131
217 131
218 131
219 131
220 131
221 131
222 131
223 131
224 131
225 131
226 131
227 131
228 131
229 131
230 131
231 131
232 131
233 131
234 131
235 131
236 131
237 131
238 131
239 131
240 131
241 131
242 131
243 131
244 131
245 131
246 131
247 131
248 131
249 131
250 131
251 131
252 131
253 131
254 131
255 131
256 131
257 131
258 131
259 131
260 131
261 131
262 131
263 131
264 131
265 131
266 131
267 131
268 131
269 131
270 131
271 131
272 131
273 131
274 131
275 131
276 131
277 131
278 131
279 131
280 131
281 131
282 131
283 131
284 131
285 131
286 131
287 131
288 131
289 131
290 131
291 131
292 131
293 131
294 131
295 131
296 131
297 131
298 131
299 131
300 131
301 131
302 131
303 131
304 131
305 131
306 131
307 131
308 131
309 131
310 131
311 131
312 131
313 131
314 131
315 131
316 131
317 131
318 131
319 131
320 131
321 131
322 131
323 131
324 131
325 131
326 131
327 131
328 131
329 131
330 131
331 131
332 131
333 131
334 131
335 131
336 131
337 131
338 131
339 131
340 131
341 131
342 131
343 131
344 131
345 131
346 131
347 131
348 131
199 132
200 132
201 132
202 132
203 132
204 132
205 132
206 132
207 132
208 132
209 132
210 132
211 132
212 132
213 132
214 132
215 132
216 132
217 132
218 132
219 132
220 132
221 132
222 132
223 132
224 132
225 132
226 132
227 132
228 132
229 132
230 132
231 132
232 132
233 132
234 132
235 132
236 132
237 132
238 132
239 132
240 132
241 132
242 132
243 132
244 132
245 132
246 132
247 132
248 132
249 132
250 132
251 132
252 132
253 132
254 132
255 132
256 132
257 132
258 132
259 132
260 132
261 132
262 132
263 132
264 132
265 132
266 132
267 132
268 132
269 132
270 132
271 132
272 132
273 132
274 132
275 132
276 132
277 132
278 132
279 132
280 132
281 132
282 132
283 132
284 132
285 132
286 132
287 132
288 132
289 132
290 132
291 132
292 132
293 132
294 132
295 132
296 132
297 132
298 132
299 132
300 132
301 132
302 132
303 132
304 132
305 132
306 132
307 132
308 132
309 132
310 132
311 132
312 132
313 132
314 132
315 132
316 132
317 132
318 132
319 132
320 132
321 132
322 132
323 132
324 132
325 132
326 132
327 132
328 132
329 132
330 132
331 132
332 132
333 132
334 132
335 132
336 132
337 132
338 132
339 132
340 132
341 132
342 132
343 132
344 132
345 132
346 132
347 132
348 132
199 133
200 133
201 133
202 133
203 133
204 133
205 133
206 133
207 133
208 133
209 133
210 133
211 133
212 133
213 133
214 133
215 133
216 133
217 133
218 133
219 133
220 133
221 133
222 133
223 133
224 133
225 133
226 133
227 133
228 133
229 133
230 133
231 133
232 133
233 133
234 133
235 133
236 133
237 133
238 133
239 133
240 133
241 133
242 133
243 133
244 133
245 133
246 133
247 133
248 133
249 133
250 133
251 133
252 133
253 133
254 133
255 133
256 133
257 133
258 133
259 133
260 133
261 133
262 133
263 133
264 133
265 133
266 133
267 133
268 133
269 133
270 133
271 133
272 133
273 133
274 133
275 133
276 133
277 133
278 133
279 133
280 133
281 133
282 133
283 133
284 133
285 133
286 133
287 133
288 133
289 133
290 133
291 133
292 133
293 133
294 133
295 133
296 133
297 133
298 133
299 133
300 133
301 133
302 133
303 133
304 133
305 133
306 133
307 133
308 133
309 133
310 133
311 133
312 133
313 133
314 133
315 133
316 133
317 133
318 133
319 133
320 133
321 133
322 133
323 133
324 133
325 133
326 133
327 133
328 133
329 133
330 133
331 133
332 133
333 133
334 133
335 133
336 133
337 133
338 133
339 133
340 133
341 133
342 133
343 133
344 133
345 133
346 133
347 133
348 133
199 134
200 134
201 134
202 134
203 134
204 134
205 134
206 134
207 134
208 134
209 134
210 134
211 134
212 134
213 134
214 134
215 134
216 134
217 134
218 134
219 134
220 134
221 134
222 134
223 134
224 134
225 134
226 134
227 134
228 134
229 134
230 134
231 134
232 134
233 134
234 134
235 134
236 134
237 134
238 134
239 134
240 134
241 134
242 134
243 134
244 134
245 134
246 134
247 134
248 134
249 134
250 134
251 134
252 134
253 134
254 134
255 134
256 134
257 134
258 134
259 134
260 134
261 134
262 134
263 134
264 134
265 134
266 134
267 134
268 134
269 134
270 134
271 134
272 134
273 134
274 134
275 134
276 134
277 134
278 134
279 134
280 134
281 134
282 134
283 134
284 134
285 134
286 134
287 134
288 134
289 134
290 134
291 134
292 134
293 134
294 134
295 134
296 134
297 134
298 134
299 134
300 134
301 134
302 134
303 134
304 134
305 134
306 134
307 134
308 134
309 134
310 134
311 134
312 134
313 134
314 134
315 134
316 134
317 134
318 134
319 134
320 134
321 134
322 134
323 134
324 134
325 134
326 134
327 134
328 134
329 134
330 134
331 134
332 134
333 134
334 134
335 134
336 134
337 134
338 134
339 134
340 134
341 134
342 134
343 134
344 134
345 134
346 134
347 134
348 134
199 135
200 135
201 135
202 135
203 135
204 135
205 135
206 135
207 135
208 135
209 135
210 135
211 135
212 135
213 135
214 135
215 135
216 135
217 135
218 135
219 135
220 135
221 135
222 135
223 135
224 135
225 135
226 135
227 135
228 135
229 135
230 135
231 135
232 135
233 135
234 135
235 135
236 135
237 135
238 135
239 135
240 135
241 135
242 135
243 135
244 135
245 135
246 135
247 135
248 135
249 135
250 135
251 135
252 135
253 135
254 135
255 135
256 135
257 135
258 135
259 135
260 135
261 135
262 135
263 135
264 135
265 135
266 135
267 135
268 135
269 135
270 135
271 135
272 135
273 135
274 135
275 135
276 135
277 135
278 135
279 135
280 135
281 135
282 135
283 135
284 135
285 135
286 135
287 135
288 135
289 135
290 135
291 135
292 135
293 135
294 135
295 135
296 135
297 135
298 135
299 135
300 135
301 135
302 135
303 135
304 135
305 135
306 135
307 135
308 135
309 135
310 135
311 135
312 135
313 135
314 135
315 135
316 135
317 135
318 135
319 135
320 135
321 135
322 135
323 135
324 135
325 135
326 135
327 135
328 135
329 135
330 135
331 135
332 135
333 135
334 135
335 135
336 135
337 135
338 135
339 135
340 135
341 135
342 135
343 135
344 135
345 135
346 135
347 135
348 135
199 136
200 136
201 136
202 136
203 136
204 136
205 136
206 136
207 136
208 136
209 136
210 136
211 136
212 136
213 136
214 136
215 136
216 136
217 136
218 136
219 136
220 136
221 136
222 136
223 136
224 136
225 136
226 136
227 136
228 136
229 136
230 136
231 136
232 136
233 136
234 136
235 136
236 136
237 136
238 136
239 136
240 136
241 136
242 136
243 136
244 136
245 136
246 136
247 136
248 136
249 136
250 136
251 136
252 136
253 136
254 136
255 136
256 136
257 136
258 136
259 136
260 136
261 136
262 136
263 136
264 136
265 136
266 136
267 136
268 136
269 136
270 136
271 136
272 136
273 136
274 136
275 136
276 136
277 136
278 136
279 136
280 136
281 136
282 136
283 136
284 136
285 136
286 136
287 136
288 136
289 136
290 136
291 136
292 136
293 136
294 136
295 136
296 136
297 136
298 136
299 136
300 136
301 136
302 136
303 136
304 136
305 136
306 136
307 136
308 136
309 136
310 136
311 136
312 136
313 136
314 136
315 136
316 136
317 136
318 136
319 136
320 136
321 136
322 136
323 136
324 136
325 136
326 136
327 136
328 136
329 136
330 136
331 136
332 136
333 136
334 136
335 136
336 136
337 136
338 136
339 136
340 136
341 136
342 136
343 136
344 136
345 136
346 136
347 136
348 136
199 137
200 137
201 137
202 137
203 137
204 137
205 137
206 137
207 137
208 137
209 137
210 137
211 137
212 137
213 137
214 137
215 137
216 137
217 137
218 137
219 137
220 137
221 137
222 137
223 137
224 137
225 137
226 137
227 137
228 137
229 137
230 137
231 137
232 137
233 137
234 137
235 137
236 137
237 137
238 137
239 137
240 137
241 137
242 137
243 137
244 137
245 137
246 137
247 137
248 137
249 137
250 137
251 137
252 137
253 137
254 137
255 137
256 137
257 137
258 137
259 137
260 137
261 137
262 137
263 137
264 137
265 137
266 137
267 137
268 137
269 137
270 137
271 137
272 137
273 137
274 137
275 137
276 137
277 137
278 137
279 137
280 137
281 137
282 137
283 137
284 137
285 137
286 137
287 137
288 137
289 137
290 137
291 137
292 137
293 137
294 137
295 137
296 137
297 137
298 137
299 137
300 137
301 137
302 137
303 137
304 137
305 137
306 137
307 137
308 137
309 137
310 137
311 137
312 137
313 137
314 137
315 137
316 137
317 137
318 137
319 137
320 137
321 137
322 137
323 137
324 137
325 137
326 137
327 137
328 137
329 137
330 137
331 137
332 137
333 137
334 137
335 137
336 137
337 137
338 137
339 137
340 137
341 137
342 137
343 137
344 137
345 137
346 137
347 137
348 137
199 138
200 138
201 138
202 138
203 138
204 138
205 138
206 138
207 138
208 138
209 138
210 138
211 138
212 138
213 138
214 138
215 138
216 138
217 138
218 138
219 138
220 138
221 138
222 138
223 138
224 138
225 138
226 138
227 138
228 138
229 138
230 138
231 138
232 138
233 138
234 138
235 138
236 138
237 138
238 138
239 138
240 138
241 138
242 138
243 138
244 138
245 138
246 138
247 138
248 138
249 138
250 138
251 138
252 138
253 138
254 138
255 138
256 138
257 138
258 138
259 138
260 138
261 138
262 138
263 138
264 138
265 138
266 138
267 138
268 138
269 138
270 138
271 138
272 138
273 138
274 138
275 138
276 138
277 138
278 138
279 138
280 138
281 138
282 138
283 138
284 138
285 138
286 138
287 138
288 138
289 138
290 138
291 138
292 138
293 138
294 138
295 138
296 138
297 138
298 138
299 138
300 138
301 138
302 138
303 138
304 138
305 138
306 138
307 138
308 138
309 138
310 138
311 138
312 138
313 138
314 138
315 138
316 138
317 138
318 138
319 138
320 138
321 138
322 138
323 138
324 138
325 138
326 138
327 138
328 138
329 138
330 138
331 138
332 138
333 138
334 138
335 138
336 138
337 138
338 138
339 138
340 138
341 138
342 138
343 138
344 138
345 138
346 138
347 138
348 138
199 139
200 139
201 139
202 139
203 139
204 139
205 139
206 139
207 139
208 139
209 139
210 139
211 139
212 139
213 139
214 139
215 139
216 139
217 139
218 139
219 139
220 139
221 139
222 139
223 139
224 139
225 139
226 139
227 139
228 139
229 139
230 139
231 139
232 139
233 139
234 139
235 139
236 139
237 139
238 139
239 139
240 139
241 139
242 139
243 139
244 139
245 139
246 139
247 139
248 139
249 139
250 139
251 139
252 139
253 139
254 139
255 139
256 139
257 139
258 139
259 139
260 139
261 139
262 139
263 139
264 139
265 139
266 139
267 139
268 139
269 139
270 139
271 139
272 139
273 139
274 139
275 139
276 139
277 139
278 139
279 139
280 139
281 139
282 139
283 139
284 139
285 139
286 139
287 139
288 139
289 139
290 139
291 139
292 139
293 139
294 139
295 139
296 139
297 139
298 139
299 139
300 139
301 139
302 139
303 139
304 139
305 139
306 139
307 139
308 139
309 139
310 139
311 139
312 139
313 139
314 139
315 139
316 139
317 139
318 139
319 139
320 139
321 139
322 139
323 139
324 139
325 139
326 139
327 139
328 139
329 139
330 139
331 139
332 139
333 139
334 139
335 139
336 139
337 139
338 139
339 139
340 139
341 139
342 139
343 139
344 139
345 139
346 139
347 139
348 139
199 140
200 140
201 140
202 140
203 140
204 140
205 140
206 140
207 140
208 140
209 140
210 140
211 140
212 140
213 140
214 140
215 140
216 140
217 140
218 140
219 140
220 140
221 140
222 140
223 140
224 140
225 140
226 140
227 140
228 140
229 140
230 140
231 140
232 140
233 140
234 140
235 140
236 140
237 140
238 140
239 140
240 140
241 140
242 140
243 140
244 140
245 140
246 140
247 140
248 140
249 140
250 140
251 140
252 140
253 140
254 140
255 140
256 140
257 140
258 140
259 140
260 140
261 140
262 140
263 140
264 140
265 140
266 140
267 140
268 140
269 140
270 140
271 140
272 140
273 140
274 140
275 140
276 140
277 140
278 140
279 140
280 140
281 140
282 140
283 140
284 140
285 140
286 140
287 140
288 140
289 140
290 140
291 140
292 140
293 140
294 140
295 140
296 140
297 140
298 140
299 140
300 140
301 140
302 140
303 140
304 140
305 140
306 140
307 140
308 140
309 140
310 140
311 140
312 140
313 140
314 140
315 140
316 140
317 140
318 140
319 140
320 140
321 140
322 140
323 140
324 140
325 140
326 140
327 140
328 140
329 140
330 140
331 140
332 140
333 140
334 140
335 140
336 140
337 140
338 140
339 140
340 140
341 140
342 140
343 140
344 140
345 140
346 140
347 140
348 140
199 141
200 141
201 141
202 141
203 141
204 141
205 141
206 141
207 141
208 141
209 141
210 141
211 141
212 141
213 141
214 141
215 141
216 141
217 141
218 141
219 141
220 141
221 141
222 141
223 141
224 141
225 141
226 141
227 141
228 141
229 141
230 141
231 141
232 141
233 141
234 141
235 141
236 141
237 141
238 141
239 141
240 141
241 141
242 141
243 141
244 141
245 141
246 141
247 141
248 141
249 141
250 141
251 141
252 141
253 141
254 141
255 141
256 141
257 141
258 141
259 141
260 141
261 141
262 141
263 141
264 141
265 141
266 141
267 141
268 141
269 141
270 141
271 141
272 141
273 141
274 141
275 141
276 141
277 141
278 141
279 141
280 141
281 141
282 141
283 141
284 141
285 141
286 141
287 141
288 141
289 141
290 141
291 141
292 141
293 141
294 141
295 141
296 141
297 141
298 141
299 141
300 141
301 141
302 141
303 141
304 141
305 141
306 141
307 141
308 141
309 141
310 141
311 141
312 141
313 141
314 141
315 141
316 141
317 141
318 141
319 141
320 141
321 141
322 141
323 141
324 141
325 141
326 141
327 141
328 141
329 141
330 141
331 141
332 141
333 141
334 141
335 141
336 141
337 141
338 141
339 141
340 141
341 141
342 141
343 141
344 141
345 141
346 141
347 141
348 141
199 142
200 142
201 142
202 142
203 142
204 142
205 142
206 142
207 142
208 142
209 142
210 142
211 142
212 142
213 142
214 142
215 142
216 142
217 142
218 142
219 142
220 142
221 142
222 142
223 142
224 142
225 142
226 142
227 142
228 142
229 142
230 142
231 142
232 142
233 142
234 142
235 142
236 142
237 142
238 142
239 142
240 142
241 142
242 142
243 142
244 142
245 142
246 142
247 142
248 142
249 142
250 142
251 142
252 142
253 142
254 142
255 142
256 142
257 142
258 142
259 142
260 142
261 142
262 142
263 142
264 142
265 142
266 142
267 142
268 142
269 142
270 142
271 142
272 142
273 142
274 142
275 142
276 142
277 142
278 142
279 142
280 142
281 142
282 142
283 142
284 142
285 142
286 142
287 142
288 142
289 142
290 142
291 142
292 142
293 142
294 142
295 142
296 142
297 142
298 142
299 142
300 142
301 142
302 142
303 142
304 142
305 142
306 142
307 142
308 142
309 142
310 142
311 142
312 142
313 142
314 142
315 142
316 142
317 142
318 142
319 142
320 142
321 142
322 142
323 142
324 142
325 142
326 142
327 142
328 142
329 142
330 142
331 142
332 142
333 142
334 142
335 142
336 142
337 142
338 142
339 142
340 142
341 142
342 142
343 142
344 142
345 142
346 142
347 142
348 142
199 143
200 143
201 143
202 143
203 143
204 143
205 143
206 143
207 143
208 143
209 143
210 143
211 143
212 143
213 143
214 143
215 143
216 143
217 143
218 143
219 143
220 143
221 143
222 143
223 143
224 143
225 143
226 143
227 143
228 143
229 143
230 143
231 143
232 143
233 143
234 143
235 143
236 143
237 143
238 143
239 143
240 143
241 143
242 143
243 143
244 143
245 143
246 143
247 143
248 143
249 143
250 143
251 143
252 143
253 143
254 143
255 143
256 143
257 143
258 143
259 143
260 143
261 143
262 143
263 143
264 143
265 143
266 143
267 143
268 143
269 143
270 143
271 143
272 143
273 143
274 143
275 143
276 143
277 143
278 143
279 143
280 143
281 143
282 143
283 143
284 143
285 143
286 143
287 143
288 143
289 143
290 143
291 143
292 143
293 143
294 143
295 143
296 143
297 143
298 143
299 143
300 143
301 143
302 143
303 143
304 143
305 143
306 143
307 143
308 143
309 143
310 143
311 143
312 143
313 143
314 143
315 143
316 143
317 143
318 143
319 143
320 143
321 143
322 143
323 143
324 143
325 143
326 143
327 143
328 143
329 143
330 143
331 143
332 143
333 143
334 143
335 143
336 143
337 143
338 143
339 143
340 143
341 143
342 143
343 143
344 143
345 143
346 143
347 143
348 143
199 144
200 144
201 144
202 144
203 144
204 144
205 144
206 144
207 144
208 144
209 144
210 144
211 144
212 144
213 144
214 144
215 144
216 144
217 144
218 144
219 144
220 144
221 144
222 144
223 144
224 144
225 144
226 144
227 144
228 144
229 144
230 144
231 144
232 144
233 144
234 144
235 144
236 144
237 144
238 144
239 144
240 144
241 144
242 144
243 144
244 144
245 144
246 144
247 144
248 144
249 144
250 144
251 144
252 144
253 144
254 144
255 144
256 144
257 144
258 144
259 144
260 144
261 144
262 144
263 144
264 144
265 144
266 144
267 144
268 144
269 144
270 144
271 144
272 144
273 144
274 144
275 144
276 144
277 144
278 144
279 144
280 144
281 144
282 144
283 144
284 144
285 144
286 144
287 144
288 144
289 144
290 144
291 144
292 144
293 144
294 144
295 144
296 144
297 144
298 144
299 144
300 144
301 144
302 144
303 144
304 144
305 144
306 144
307 144
308 144
309 144
310 144
311 144
312 144
313 144
314 144
315 144
316 144
317 144
318 144
319 144
320 144
321 144
322 144
323 144
324 144
325 144
326 144
327 144
328 144
329 144
330 144
331 144
332 144
333 144
334 144
335 144
336 144
337 144
338 144
339 144
340 144
341 144
342 144
343 144
344 144
345 144
346 144
347 144
348 144
199 145
200 145
201 145
202 145
203 145
204 145
205 145
206 145
207 145
208 145
209 145
210 145
211 145
212 145
213 145
214 145
215 145
216 145
217 145
218 145
219 145
220 145
221 145
222 145
223 145
224 145
225 145
226 145
227 145
228 145
229 145
230 145
231 145
232 145
233 145
234 145
235 145
236 145
237 145
238 145
239 145
240 145
241 145
242 145
243 145
244 145
245 145
246 145
247 145
248 145
249 145
250 145
251 145
252 145
253 145
254 145
255 145
256 145
257 145
258 145
259 145
260 145
261 145
262 145
263 145
264 145
265 145
266 145
267 145
268 145
269 145
270 145
271 145
272 145
273 145
274 145
275 145
276 145
277 145
278 145
279 145
280 145
281 145
282 145
283 145
284 145
285 145
286 145
287 145
288 145
289 145
290 145
291 145
292 145
293 145
294 145
295 145
296 145
297 145
298 145
299 145
300 145
301 145
302 145
303 145
304 145
305 145
306 145
307 145
308 145
309 145
310 145
311 145
312 145
313 145
314 145
315 145
316 145
317 145
318 145
319 145
320 145
321 145
322 145
323 145
324 145
325 145
326 145
327 145
328 145
329 145
330 145
331 145
332 145
333 145
334 145
335 145
336 145
337 145
338 145
339 145
340 145
341 145
342 145
343 145
344 145
345 145
346 145
347 145
348 145
199 146
200 146
201 146
202 146
203 146
204 146
205 146
206 146
207 146
208 146
209 146
210 146
211 146
212 146
213 146
214 146
215 146
216 146
217 146
218 146
219 146
220 146
221 146
222 146
223 146
224 146
225 146
226 146
227 146
228 146
229 146
230 146
231 146
232 146
233 146
234 146
235 146
236 146
237 146
238 146
239 146
240 146
241 146
242 146
243 146
244 146
245 146
246 146
247 146
248 146
249 146
250 146
251 146
252 146
253 146
254 146
255 146
256 146
257 146
258 146
259 146
260 146
261 146
262 146
263 146
264 146
265 146
266 146
267 146
268 146
269 146
270 146
271 146
272 146
273 146
274 146
275 146
276 146
277 146
278 146
279 146
280 146
281 146
282 146
283 146
284 146
285 146
286 146
287 146
288 146
289 146
290 146
291 146
292 146
293 146
294 146
295 146
296 146
297 146
298 146
299 146
300 146
301 146
302 146
303 146
304 146
305 146
306 146
307 146
308 146
309 146
310 146
311 146
312 146
313 146
314 146
315 146
316 146
317 146
318 146
319 146
320 146
321 146
322 146
323 146
324 146
325 146
326 146
327 146
328 146
329 146
330 146
331 146
332 146
333 146
334 146
335 146
336 146
337 146
338 146
339 146
340 146
341 146
342 146
343 146
344 146
345 146
346 146
347 146
348 146
199 147
200 147
201 147
202 147
203 147
204 147
205 147
206 147
207 147
208 147
209 147
210 147
211 147
212 147
213 147
214 147
215 147
216 147
217 147
218 147
219 147
220 147
221 147
222 147
223 147
224 147
225 147
226 147
227 147
228 147
229 147
230 147
231 147
232 147
233 147
234 147
235 147
236 147
237 147
238 147
239 147
240 147
241 147
242 147
243 147
244 147
245 147
246 147
247 147
248 147
249 147
250 147
251 147
252 147
253 147
254 147
255 147
256 147
257 147
258 147
259 147
260 147
261 147
262 147
263 147
264 147
265 147
266 147
267 147
268 147
269 147
270 147
271 147
272 147
273 147
274 147
275 147
276 147
277 147
278 147
279 147
280 147
281 147
282 147
283 147
284 147
285 147
286 147
287 147
288 147
289 147
290 147
291 147
292 147
293 147
294 147
295 147
296 147
297 147
298 147
299 147
300 147
301 147
302 147
303 147
304 147
305 147
306 147
307 147
308 147
309 147
310 147
311 147
312 147
313 147
314 147
315 147
316 147
317 147
318 147
319 147
320 147
321 147
322 147
323 147
324 147
325 147
326 147
327 147
328 147
329 147
330 147
331 147
332 147
333 147
334 147
335 147
336 147
337 147
338 147
339 147
340 147
341 147
342 147
343 147
344 147
345 147
346 147
347 147
348 147
199 148
200 148
201 148
202 148
203 148
204 148
205 148
206 148
207 148
208 148
209 148
210 148
211 148
212 148
213 148
214 148
215 148
216 148
217 148
218 148
219 148
220 148
221 148
222 148
223 148
224 148
225 148
226 148
227 148
228 148
229 148
230 148
231 148
232 148
233 148
234 148
235 148
236 148
237 148
238 148
239 148
240 148
241 148
242 148
243 148
244 148
245 148
246 148
247 148
248 148
249 148
250 148
251 148
252 148
253 148
254 148
255 148
256 148
257 148
258 148
259 148
260 148
261 148
262 148
263 148
264 148
265 148
266 148
267 148
268 148
269 148
270 148
271 148
272 148
273 148
274 148
275 148
276 148
277 148
278 148
279 148
280 148
281 148
282 148
283 148
284 148
285 148
286 148
287 148
288 148
289 148
290 148
291 148
292 148
293 148
294 148
295 148
296 148
297 148
298 148
299 148
300 148
301 148
302 148
303 148
304 148
305 148
306 148
307 148
308 148
309 148
310 148
311 148
312 148
313 148
314 148
315 148
316 148
317 148
318 148
319 148
320 148
321 148
322 148
323 148
324 148
325 148
326 148
327 148
328 148
329 148
330 148
331 148
332 148
333 148
334 148
335 148
336 148
337 148
338 148
339 148
340 148
341 148
342 148
343 148
344 148
345 148
346 148
347 148
348 148
199 149
200 149
201 149
202 149
203 149
204 149
205 149
206 149
207 149
208 149
209 149
210 149
211 149
212 149
213 149
214 149
215 149
216 149
217 149
218 149
219 149
220 149
221 149
222 149
223 149
224 149
225 149
226 149
227 149
228 149
229 149
230 149
231 149
232 149
233 149
234 149
235 149
236 149
237 149
238 149
239 149
240 149
241 149
242 149
243 149
244 149
245 149
246 149
247 149
248 149
249 149
250 149
251 149
252 149
253 149
254 149
255 149
256 149
257 149
258 149
259 149
260 149
261 149
262 149
263 149
264 149
265 149
266 149
267 149
268 149
269 149
270 149
271 149
272 149
273 149
274 149
275 149
276 149
277 149
278 149
279 149
280 149
281 149
282 149
283 149
284 149
285 149
286 149
287 149
288 149
289 149
290 149
291 149
292 149
293 149
294 149
295 149
296 149
297 149
298 149
299 149
300 149
301 149
302 149
303 149
304 149
305 149
306 149
307 149
308 149
309 149
310 149
311 149
312 149
313 149
314 149
315 149
316 149
317 149
318 149
319 149
320 149
321 149
322 149
323 149
324 149
325 149
326 149
327 149
328 149
329 149
330 149
331 149
332 149
333 149
334 149
335 149
336 149
337 149
338 149
339 149
340 149
341 149
342 149
343 149
344 149
345 149
346 149
347 149
348 149
199 150
200 150
201 150
202 150
203 150
204 150
205 150
206 150
207 150
208 150
209 150
210 150
211 150
212 150
213 150
214 150
215 150
216 150
217 150
218 150
219 150
220 150
221 150
222 150
223 150
224 150
225 150
226 150
227 150
228 150
229 150
230 150
231 150
232 150
233 150
234 150
235 150
236 150
237 150
238 150
239 150
240 150
241 150
242 150
243 150
244 150
245 150
246 150
247 150
248 150
249 150
250 150
251 150
252 150
253 150
254 150
255 150
256 150
257 150
258 150
259 150
260 150
261 150
262 150
263 150
264 150
265 150
266 150
267 150
268 150
269 150
270 150
271 150
272 150
273 150
274 150
275 150
276 150
277 150
278 150
279 150
280 150
281 150
282 150
283 150
284 150
285 150
286 150
287 150
288 150
289 150
290 150
291 150
292 150
293 150
294 150
295 150
296 150
297 150
298 150
299 150
300 150
301 150
302 150
303 150
304 150
305 150
306 150
307 150
308 150
309 150
310 150
311 150
312 150
313 150
314 150
315 150
316 150
317 150
318 150
319 150
320 150
321 150
322 150
323 150
324 150
325 150
326 150
327 150
328 150
329 150
330 150
331 150
332 150
333 150
334 150
335 150
336 150
337 150
338 150
339 150
340 150
341 150
342 150
343 150
344 150
345 150
346 150
347 150
348 150
199 151
200 151
201 151
202 151
203 151
204 151
205 151
206 151
207 151
208 151
209 151
210 151
211 151
212 151
213 151
214 151
215 151
216 151
217 151
218 151
219 151
220 151
221 151
222 151
223 151
224 151
225 151
226 151
227 151
228 151
229 151
230 151
231 151
232 151
233 151
234 151
235 151
236 151
237 151
238 151
239 151
240 151
241 151
242 151
243 151
244 151
245 151
246 151
247 151
248 151
249 151
250 151
251 151
252 151
253 151
254 151
255 151
256 151
257 151
258 151
259 151
260 151
261 151
262 151
263 151
264 151
265 151
266 151
267 151
268 151
269 151
270 151
271 151
272 151
273 151
274 151
275 151
276 151
277 151
278 151
279 151
280 151
281 151
282 151
283 151
284 151
285 151
286 151
287 151
288 151
289 151
290 151
291 151
292 151
293 151
294 151
295 151
296 151
297 151
298 151
299 151
300 151
301 151
302 151
303 151
304 151
305 151
306 151
307 151
308 151
309 151
310 151
311 151
312 151
313 151
314 151
315 151
316 151
317 151
318 151
319 151
320 151
321 151
322 151
323 151
324 151
325 151
326 151
327 151
328 151
329 151
330 151
331 151
332 151
333 151
334 151
335 151
336 151
337 151
338 151
339 151
340 151
341 151
342 151
343 151
344 151
345 151
346 151
347 151
348 151
199 152
200 152
201 152
202 152
203 152
204 152
205 152
206 152
207 152
208 152
209 152
210 152
211 152
212 152
213 152
214 152
215 152
216 152
217 152
218 152
219 152
220 152
221 152
222 152
223 152
224 152
225 152
226 152
227 152
228 152
229 152
230 152
231 152
232 152
233 152
234 152
235 152
236 152
237 152
238 152
239 152
240 152
241 152
242 152
243 152
244 152
245 152
246 152
247 152
248 152
249 152
250 152
251 152
252 152
253 152
254 152
255 152
256 152
257 152
258 152
259 152
260 152
261 152
262 152
263 152
264 152
265 152
266 152
267 152
268 152
269 152
270 152
271 152
272 152
273 152
274 152
275 152
276 152
277 152
278 152
279 152
280 152
281 152
282 152
283 152
284 152
285 152
286 152
287 152
288 152
289 152
290 152
291 152
292 152
293 152
294 152
295 152
296 152
297 152
298 152
299 152
300 152
301 152
302 152
303 152
304 152
305 152
306 152
307 152
308 152
309 152
310 152
311 152
312 152
313 152
314 152
315 152
316 152
317 152
318 152
319 152
320 152
321 152
322 152
323 152
324 152
325 152
326 152
327 152
328 152
329 152
330 152
331 152
332 152
333 152
334 152
335 152
336 152
337 152
338 152
339 152
340 152
341 152
342 152
343 152
344 152
345 152
346 152
347 152
348 152
199 153
200 153
201 153
202 153
203 153
204 153
205 153
206 153
207 153
208 153
209 153
210 153
211 153
212 153
213 153
214 153
215 153
216 153
217 153
218 153
219 153
220 153
221 153
222 153
223 153
224 153
225 153
226 153
227 153
228 153
229 153
230 153
231 153
232 153
233 153
234 153
235 153
236 153
237 153
238 153
239 153
240 153
241 153
242 153
243 153
244 153
245 153
246 153
247 153
248 153
249 153
250 153
251 153
252 153
253 153
254 153
255 153
256 153
257 153
258 153
259 153
260 153
261 153
262 153
263 153
264 153
265 153
266 153
267 153
268 153
269 153
270 153
271 153
272 153
273 153
274 153
275 153
276 153
277 153
278 153
279 153
280 153
281 153
282 153
283 153
284 153
285 153
286 153
287 153
288 153
289 153
290 153
291 153
292 153
293 153
294 153
295 153
296 153
297 153
298 153
299 153
300 153
301 153
302 153
303 153
304 153
305 153
306 153
307 153
308 153
309 153
310 153
311 153
312 153
313 153
314 153
315 153
316 153
317 153
318 153
319 153
320 153
321 153
322 153
323 153
324 153
325 153
326 153
327 153
328 153
329 153
330 153
331 153
332 153
333 153
334 153
335 153
336 153
337 153
338 153
339 153
340 153
341 153
342 153
343 153
344 153
345 153
346 153
347 153
348 153
199 154
200 154
201 154
202 154
203 154
204 154
205 154
206 154
207 154
208 154
209 154
210 154
211 154
212 154
213 154
214 154
215 154
216 154
217 154
218 154
219 154
220 154
221 154
222 154
223 154
224 154
225 154
226 154
227 154
228 154
229 154
230 154
231 154
232 154
233 154
234 154
235 154
236 154
237 154
238 154
239 154
240 154
241 154
242 154
243 154
244 154
245 154
246 154
247 154
248 154
249 154
250 154
251 154
252 154
253 154
254 154
255 154
256 154
257 154
258 154
259 154
260 154
261 154
262 154
263 154
264 154
265 154
266 154
267 154
268 154
269 154
270 154
271 154
272 154
273 154
274 154
275 154
276 154
277 154
278 154
279 154
280 154
281 154
282 154
283 154
284 154
285 154
286 154
287 154
288 154
289 154
290 154
291 154
292 154
293 154
294 154
295 154
296 154
297 154
298 154
299 154
300 154
301 154
302 154
303 154
304 154
305 154
306 154
307 154
308 154
309 154
310 154
311 154
312 154
313 154
314 154
315 154
316 154
317 154
318 154
319 154
320 154
321 154
322 154
323 154
324 154
325 154
326 154
327 154
328 154
329 154
330 154
331 154
332 154
333 154
334 154
335 154
336 154
337 154
338 154
339 154
340 154
341 154
342 154
343 154
344 154
345 154
346 154
347 154
348 154
199 155
200 155
201 155
202 155
203 155
204 155
205 155
206 155
207 155
208 155
209 155
210 155
211 155
212 155
213 155
214 155
215 155
216 155
217 155
218 155
219 155
220 155
221 155
222 155
223 155
224 155
225 155
226 155
227 155
228 155
229 155
230 155
231 155
232 155
233 155
234 155
235 155
236 155
237 155
238 155
239 155
240 155
241 155
242 155
243 155
244 155
245 155
246 155
247 155
248 155
249 155
250 155
251 155
252 155
253 155
254 155
255 155
256 155
257 155
258 155
259 155
260 155
261 155
262 155
263 155
264 155
265 155
266 155
267 155
268 155
269 155
270 155
271 155
272 155
273 155
274 155
275 155
276 155
277 155
278 155
279 155
280 155
281 155
282 155
283 155
284 155
285 155
286 155
287 155
288 155
289 155
290 155
291 155
292 155
293 155
294 155
295 155
296 155
297 155
298 155
299 155
300 155
301 155
302 155
303 155
304 155
305 155
306 155
307 155
308 155
309 155
310 155
311 155
312 155
313 155
314 155
315 155
316 155
317 155
318 155
319 155
320 155
321 155
322 155
323 155
324 155
325 155
326 155
327 155
328 155
329 155
330 155
331 155
332 155
333 155
334 155
335 155
336 155
337 155
338 155
339 155
340 155
341 155
342 155
343 155
344 155
345 155
346 155
347 155
348 155
199 156
200 156
201 156
202 156
203 156
204 156
205 156
206 156
207 156
208 156
209 156
210 156
211 156
212 156
213 156
214 156
215 156
216 156
217 156
218 156
219 156
220 156
221 156
222 156
223 156
224 156
225 156
226 156
227 156
228 156
229 156
230 156
231 156
232 156
233 156
234 156
235 156
236 156
237 156
238 156
239 156
240 156
241 156
242 156
243 156
244 156
245 156
246 156
247 156
248 156
249 156
250 156
251 156
252 156
253 156
254 156
255 156
256 156
257 156
258 156
259 156
260 156
261 156
262 156
263 156
264 156
265 156
266 156
267 156
268 156
269 156
270 156
271 156
272 156
273 156
274 156
275 156
276 156
277 156
278 156
279 156
280 156
281 156
282 156
283 156
284 156
285 156
286 156
287 156
288 156
289 156
290 156
291 156
292 156
293 156
294 156
295 156
296 156
297 156
298 156
299 156
300 156
301 156
302 156
303 156
304 156
305 156
306 156
307 156
308 156
309 156
310 156
311 156
312 156
313 156
314 156
315 156
316 156
317 156
318 156
319 156
320 156
321 156
322 156
323 156
324 156
325 156
326 156
327 156
328 156
329 156
330 156
331 156
332 156
333 156
334 156
335 156
336 156
337 156
338 156
339 156
340 156
341 156
342 156
343 156
344 156
345 156
346 156
347 156
348 156
199 157
200 157
201 157
202 157
203 157
204 157
205 157
206 157
207 157
208 157
209 157
210 157
211 157
212 157
213 157
214 157
215 157
216 157
217 157
218 157
219 157
220 157
221 157
222 157
223 157
224 157
225 157
226 157
227 157
228 157
229 157
230 157
231 157
232 157
233 157
234 157
235 157
236 157
237 157
238 157
239 157
240 157
241 157
242 157
243 157
244 157
245 157
246 157
247 157
248 157
249 157
250 157
251 157
252 157
253 157
254 157
255 157
256 157
257 157
258 157
259 157
260 157
261 157
262 157
263 157
264 157
265 157
266 157
267 157
268 157
269 157
270 157
271 157
272 157
273 157
274 157
275 157
276 157
277 157
278 157
279 157
280 157
281 157
282 157
283 157
284 157
285 157
286 157
287 157
288 157
289 157
290 157
291 157
292 157
293 157
294 157
295 157
296 157
297 157
298 157
299 157
300 157
301 157
302 157
303 157
304 157
305 157
306 157
307 157
308 157
309 157
310 157
311 157
312 157
313 157
314 157
315 157
316 157
317 157
318 157
319 157
320 157
321 157
322 157
323 157
324 157
325 157
326 157
327 157
328 157
329 157
330 157
331 157
332 157
333 157
334 157
335 157
336 157
337 157
338 157
339 157
340 157
341 157
342 157
343 157
344 157
345 157
346 157
347 157
348 157
199 158
200 158
201 158
202 158
203 158
204 158
205 158
206 158
207 158
208 158
209 158
210 158
211 158
212 158
213 158
214 158
215 158
216 158
217 158
218 158
219 158
220 158
221 158
222 158
223 158
224 158
225 158
226 158
227 158
228 158
229 158
230 158
231 158
232 158
233 158
234 158
235 158
236 158
237 158
238 158
239 158
240 158
241 158
242 158
243 158
244 158
245 158
246 158
247 158
248 158
249 158
250 158
251 158
252 158
253 158
254 158
255 158
256 158
257 158
258 158
259 158
260 158
261 158
262 158
263 158
264 158
265 158
266 158
267 158
268 158
269 158
270 158
271 158
272 158
273 158
274 158
275 158
276 158
277 158
278 158
279 158
280 158
281 158
282 158
283 158
284 158
285 158
286 158
287 158
288 158
289 158
290 158
291 158
292 158
293 158
294 158
295 158
296 158
297 158
298 158
299 158
300 158
301 158
302 158
303 158
304 158
305 158
306 158
307 158
308 158
309 158
310 158
311 158
312 158
313 158
314 158
315 158
316 158
317 158
318 158
319 158
320 158
321 158
322 158
323 158
324 158
325 158
326 158
327 158
328 158
329 158
330 158
331 158
332 158
333 158
334 158
335 158
336 158
337 158
338 158
339 158
340 158
341 158
342 158
343 158
344 158
345 158
346 158
347 158
348 158
199 159
200 159
201 159
202 159
203 159
204 159
205 159
206 159
207 159
208 159
209 159
210 159
211 159
212 159
213 159
214 159
215 159
216 159
217 159
218 159
219 159
220 159
221 159
222 159
223 159
224 159
225 159
226 159
227 159
228 159
229 159
230 159
231 159
232 159
233 159
234 159
235 159
236 159
237 159
238 159
239 159
240 159
241 159
242 159
243 159
244 159
245 159
246 159
247 159
248 159
249 159
250 159
251 159
252 159
253 159
254 159
255 159
256 159
257 159
258 159
259 159
260 159
261 159
262 159
263 159
264 159
265 159
266 159
267 159
268 159
269 159
270 159
271 159
272 159
273 159
274 159
275 159
276 159
277 159
278 159
279 159
280 159
281 159
282 159
283 159
284 159
285 159
286 159
287 159
288 159
289 159
290 159
291 159
292 159
293 159
294 159
295 159
296 159
297 159
298 159
299 159
300 159
301 159
302 159
303 159
304 159
305 159
306 159
307 159
308 159
309 159
310 159
311 159
312 159
313 159
314 159
315 159
316 159
317 159
318 159
319 159
320 159
321 159
322 159
323 159
324 159
325 159
326 159
327 159
328 159
329 159
330 159
331 159
332 159
333 159
334 159
335 159
336 159
337 159
338 159
339 159
340 159
341 159
342 159
343 159
344 159
345 159
346 159
347 159
348 159
199 160
200 160
201 160
202 160
203 160
204 160
205 160
206 160
207 160
208 160
209 160
210 160
211 160
212 160
213 160
214 160
215 160
216 160
217 160
218 160
219 160
220 160
221 160
222 160
223 160
224 160
225 160
226 160
227 160
228 160
229 160
230 160
231 160
232 160
233 160
234 160
235 160
236 160
237 160
238 160
239 160
240 160
241 160
242 160
243 160
244 160
245 160
246 160
247 160
248 160
249 160
250 160
251 160
252 160
253 160
254 160
255 160
256 160
257 160
258 160
259 160
260 160
261 160
262 160
263 160
264 160
265 160
266 160
267 160
268 160
269 160
270 160
271 160
272 160
273 160
274 160
275 160
276 160
277 160
278 160
279 160
280 160
281 160
282 160
283 160
284 160
285 160
286 160
287 160
288 160
289 160
290 160
291 160
292 160
293 160
294 160
295 160
296 160
297 160
298 160
299 160
300 160
301 160
302 160
303 160
304 160
305 160
306 160
307 160
308 160
309 160
310 160
311 160
312 160
313 160
314 160
315 160
316 160
317 160
318 160
319 160
320 160
321 160
322 160
323 160
324 160
325 160
326 160
327 160
328 160
329 160
330 160
331 160
332 160
333 160
334 160
335 160
336 160
337 160
338 160
339 160
340 160
341 160
342 160
343 160
344 160
345 160
346 160
347 160
348 160
199 161
200 161
201 161
202 161
203 161
204 161
205 161
206 161
207 161
208 161
209 161
210 161
211 161
212 161
213 161
214 161
215 161
216 161
217 161
218 161
219 161
220 161
221 161
222 161
223 161
224 161
225 161
226 161
227 161
228 161
229 161
230 161
231 161
232 161
233 161
234 161
235 161
236 161
237 161
238 161
239 161
240 161
241 161
242 161
243 161
244 161
245 161
246 161
247 161
248 161
249 161
250 161
251 161
252 161
253 161
254 161
255 161
256 161
257 161
258 161
259 161
260 161
261 161
262 161
263 161
264 161
265 161
266 161
267 161
268 161
269 161
270 161
271 161
272 161
273 161
274 161
275 161
276 161
277 161
278 161
279 161
280 161
281 161
282 161
283 161
284 161
285 161
286 161
287 161
288 161
289 161
290 161
291 161
292 161
293 161
294 161
295 161
296 161
297 161
298 161
299 161
300 161
301 161
302 161
303 161
304 161
305 161
306 161
307 161
308 161
309 161
310 161
311 161
312 161
313 161
314 161
315 161
316 161
317 161
318 161
319 161
320 161
321 161
322 161
323 161
324 161
325 161
326 161
327 161
328 161
329 161
330 161
331 161
332 161
333 161
334 161
335 161
336 161
337 161
338 161
339 161
340 161
341 161
342 161
343 161
344 161
345 161
346 161
347 161
348 161
199 162
200 162
201 162
202 162
203 162
204 162
205 162
206 162
207 162
208 162
209 162
210 162
211 162
212 162
213 162
214 162
215 162
216 162
217 162
218 162
219 162
220 162
221 162
222 162
223 162
224 162
225 162
226 162
227 162
228 162
229 162
230 162
231 162
232 162
233 162
234 162
235 162
236 162
237 162
238 162
239 162
240 162
241 162
242 162
243 162
244 162
245 162
246 162
247 162
248 162
249 162
250 162
251 162
252 162
253 162
254 162
255 162
256 162
257 162
258 162
259 162
260 162
261 162
262 162
263 162
264 162
265 162
266 162
267 162
268 162
269 162
270 162
271 162
272 162
273 162
274 162
275 162
276 162
277 162
278 162
279 162
280 162
281 162
282 162
283 162
284 162
285 162
286 162
287 162
288 162
289 162
290 162
291 162
292 162
293 162
294 162
295 162
296 162
297 162
298 162
299 162
300 162
301 162
302 162
303 162
304 162
305 162
306 162
307 162
308 162
309 162
310 162
311 162
312 162
313 162
314 162
315 162
316 162
317 162
318 162
319 162
320 162
321 162
322 162
323 162
324 162
325 162
326 162
327 162
328 162
329 162
330 162
331 162
332 162
333 162
334 162
335 162
336 162
337 162
338 162
339 162
340 162
341 162
342 162
343 162
344 162
345 162
346 162
347 162
348 162
199 163
200 163
201 163
202 163
203 163
204 163
205 163
206 163
207 163
208 163
209 163
210 163
211 163
212 163
213 163
214 163
215 163
216 163
217 163
218 163
219 163
220 163
221 163
222 163
223 163
224 163
225 163
226 163
227 163
228 163
229 163
230 163
231 163
232 163
233 163
234 163
235 163
236 163
237 163
238 163
239 163
240 163
241 163
242 163
243 163
244 163
245 163
246 163
247 163
248 163
249 163
250 163
251 163
252 163
253 163
254 163
255 163
256 163
257 163
258 163
259 163
260 163
261 163
262 163
263 163
264 163
265 163
266 163
267 163
268 163
269 163
270 163
271 163
272 163
273 163
274 163
275 163
276 163
277 163
278 163
279 163
280 163
281 163
282 163
283 163
284 163
285 163
286 163
287 163
288 163
289 163
290 163
291 163
292 163
293 163
294 163
295 163
296 163
297 163
298 163
299 163
300 163
301 163
302 163
303 163
304 163
305 163
306 163
307 163
308 163
309 163
310 163
311 163
312 163
313 163
314 163
315 163
316 163
317 163
318 163
319 163
320 163
321 163
322 163
323 163
324 163
325 163
326 163
327 163
328 163
329 163
330 163
331 163
332 163
333 163
334 163
335 163
336 163
337 163
338 163
339 163
340 163
341 163
342 163
343 163
344 163
345 163
346 163
347 163
348 163
199 164
200 164
201 164
202 164
203 164
204 164
205 164
206 164
207 164
208 164
209 164
210 164
211 164
212 164
213 164
214 164
215 164
216 164
217 164
218 164
219 164
220 164
221 164
222 164
223 164
224 164
225 164
226 164
227 164
228 164
229 164
230 164
231 164
232 164
233 164
234 164
235 164
236 164
237 164
238 164
239 164
240 164
241 164
242 164
243 164
244 164
245 164
246 164
247 164
248 164
249 164
250 164
251 164
252 164
253 164
254 164
255 164
256 164
257 164
258 164
259 164
260 164
261 164
262 164
263 164
264 164
265 164
266 164
267 164
268 164
269 164
270 164
271 164
272 164
273 164
274 164
275 164
276 164
277 164
278 164
279 164
280 164
281 164
282 164
283 164
284 164
285 164
286 164
287 164
288 164
289 164
290 164
291 164
292 164
293 164
294 164
295 164
296 164
297 164
298 164
299 164
300 164
301 164
302 164
303 164
304 164
305 164
306 164
307 164
308 164
309 164
310 164
311 164
312 164
313 164
314 164
315 164
316 164
317 164
318 164
319 164
320 164
321 164
322 164
323 164
324 164
325 164
326 164
327 164
328 164
329 164
330 164
331 164
332 164
333 164
334 164
335 164
336 164
337 164
338 164
339 164
340 164
341 164
342 164
343 164
344 164
345 164
346 164
347 164
348 164
199 165
200 165
201 165
202 165
203 165
204 165
205 165
206 165
207 165
208 165
209 165
210 165
211 165
212 165
213 165
214 165
215 165
216 165
217 165
218 165
219 165
220 165
221 165
222 165
223 165
224 165
225 165
226 165
227 165
228 165
229 165
230 165
231 165
232 165
233 165
234 165
235 165
236 165
237 165
238 165
239 165
240 165
241 165
242 165
243 165
244 165
245 165
246 165
247 165
248 165
249 165
250 165
251 165
252 165
253 165
254 165
255 165
256 165
257 165
258 165
259 165
260 165
261 165
262 165
263 165
264 165
265 165
266 165
267 165
268 165
269 165
270 165
271 165
272 165
273 165
274 165
275 165
276 165
277 165
278 165
279 165
280 165
281 165
282 165
283 165
284 165
285 165
286 165
287 165
288 165
289 165
290 165
291 165
292 165
293 165
294 165
295 165
296 165
297 165
298 165
299 165
300 165
301 165
302 165
303 165
304 165
305 165
306 165
307 165
308 165
309 165
310 165
311 165
312 165
313 165
314 165
315 165
316 165
317 165
318 165
319 165
320 165
321 165
322 165
323 165
324 165
325 165
326 165
327 165
328 165
329 165
330 165
331 165
332 165
333 165
334 165
335 165
336 165
337 165
338 165
339 165
340 165
341 165
342 165
343 165
344 165
345 165
346 165
347 165
348 165
199 166
200 166
201 166
202 166
203 166
204 166
205 166
206 166
207 166
208 166
209 166
210 166
211 166
212 166
213 166
214 166
215 166
216 166
217 166
218 166
219 166
220 166
221 166
222 166
223 166
224 166
225 166
226 166
227 166
228 166
229 166
230 166
231 166
232 166
233 166
234 166
235 166
236 166
237 166
238 166
239 166
240 166
241 166
242 166
243 166
244 166
245 166
246 166
247 166
248 166
249 166
250 166
251 166
252 166
253 166
254 166
255 166
256 166
257 166
258 166
259 166
260 166
261 166
262 166
263 166
264 166
265 166
266 166
267 166
268 166
269 166
270 166
271 166
272 166
273 166
274 166
275 166
276 166
277 166
278 166
279 166
280 166
281 166
282 166
283 166
284 166
285 166
286 166
287 166
288 166
289 166
290 166
291 166
292 166
293 166
294 166
295 166
296 166
297 166
298 166
299 166
300 166
301 166
302 166
303 166
304 166
305 166
306 166
307 166
308 166
309 166
310 166
311 166
312 166
313 166
314 166
315 166
316 166
317 166
318 166
319 166
320 166
321 166
322 166
323 166
324 166
325 166
326 166
327 166
328 166
329 166
330 166
331 166
332 166
333 166
334 166
335 166
336 166
337 166
338 166
339 166
340 166
341 166
342 166
343 166
344 166
345 166
346 166
347 166
348 166
199 167
200 167
201 167
202 167
203 167
204 167
205 167
206 167
207 167
208 167
209 167
210 167
211 167
212 167
213 167
214 167
215 167
216 167
217 167
218 167
219 167
220 167
221 167
222 167
223 167
224 167
225 167
226 167
227 167
228 167
229 167
230 167
231 167
232 167
233 167
234 167
235 167
236 167
237 167
238 167
239 167
240 167
241 167
242 167
243 167
244 167
245 167
246 167
247 167
248 167
249 167
250 167
251 167
252 167
253 167
254 167
255 167
256 167
257 167
258 167
259 167
260 167
261 167
262 167
263 167
264 167
265 167
266 167
267 167
268 167
269 167
270 167
271 167
272 167
273 167
274 167
275 167
276 167
277 167
278 167
279 167
280 167
281 167
282 167
283 167
284 167
285 167
286 167
287 167
288 167
289 167
290 167
291 167
292 167
293 167
294 167
295 167
296 167
297 167
298 167
299 167
300 167
301 167
302 167
303 167
304 167
305 167
306 167
307 167
308 167
309 167
310 167
311 167
312 167
313 167
314 167
315 167
316 167
317 167
318 167
319 167
320 167
321 167
322 167
323 167
324 167
325 167
326 167
327 167
328 167
329 167
330 167
331 167
332 167
333 167
334 167
335 167
336 167
337 167
338 167
339 167
340 167
341 167
342 167
343 167
344 167
345 167
346 167
347 167
348 167
199 168
200 168
201 168
202 168
203 168
204 168
205 168
206 168
207 168
208 168
209 168
210 168
211 168
212 168
213 168
214 168
215 168
216 168
217 168
218 168
219 168
220 168
221 168
222 168
223 168
224 168
225 168
226 168
227 168
228 168
229 168
230 168
231 168
232 168
233 168
234 168
235 168
236 168
237 168
238 168
239 168
240 168
241 168
242 168
243 168
244 168
245 168
246 168
247 168
248 168
249 168
250 168
251 168
252 168
253 168
254 168
255 168
256 168
257 168
258 168
259 168
260 168
261 168
262 168
263 168
264 168
265 168
266 168
267 168
268 168
269 168
270 168
271 168
272 168
273 168
274 168
275 168
276 168
277 168
278 168
279 168
280 168
281 168
282 168
283 168
284 168
285 168
286 168
287 168
288 168
289 168
290 168
291 168
292 168
293 168
294 168
295 168
296 168
297 168
298 168
299 168
300 168
301 168
302 168
303 168
304 168
305 168
306 168
307 168
308 168
309 168
310 168
311 168
312 168
313 168
314 168
315 168
316 168
317 168
318 168
319 168
320 168
321 168
322 168
323 168
324 168
325 168
326 168
327 168
328 168
329 168
330 168
331 168
332 168
333 168
334 168
335 168
336 168
337 168
338 168
339 168
340 168
341 168
342 168
343 168
344 168
345 168
346 168
347 168
348 168
199 169
200 169
201 169
202 169
203 169
204 169
205 169
206 169
207 169
208 169
209 169
210 169
211 169
212 169
213 169
214 169
215 169
216 169
217 169
218 169
219 169
220 169
221 169
222 169
223 169
224 169
225 169
226 169
227 169
228 169
229 169
230 169
231 169
232 169
233 169
234 169
235 169
236 169
237 169
238 169
239 169
240 169
241 169
242 169
243 169
244 169
245 169
246 169
247 169
248 169
249 169
250 169
251 169
252 169
253 169
254 169
255 169
256 169
257 169
258 169
259 169
260 169
261 169
262 169
263 169
264 169
265 169
266 169
267 169
268 169
269 169
270 169
271 169
272 169
273 169
274 169
275 169
276 169
277 169
278 169
279 169
280 169
281 169
282 169
283 169
284 169
285 169
286 169
287 169
288 169
289 169
290 169
291 169
292 169
293 169
294 169
295 169
296 169
297 169
298 169
299 169
300 169
301 169
302 169
303 169
304 169
305 169
306 169
307 169
308 169
309 169
310 169
311 169
312 169
313 169
314 169
315 169
316 169
317 169
318 169
319 169
320 169
321 169
322 169
323 169
324 169
325 169
326 169
327 169
328 169
329 169
330 169
331 169
332 169
333 169
334 169
335 169
336 169
337 169
338 169
339 169
340 169
341 169
342 169
343 169
344 169
345 169
346 169
347 169
348 169
199 170
200 170
201 170
202 170
203 170
204 170
205 170
206 170
207 170
208 170
209 170
210 170
211 170
212 170
213 170
214 170
215 170
216 170
217 170
218 170
219 170
220 170
221 170
222 170
223 170
224 170
225 170
226 170
227 170
228 170
229 170
230 170
231 170
232 170
233 170
234 170
235 170
236 170
237 170
238 170
239 170
240 170
241 170
242 170
243 170
244 170
245 170
246 170
247 170
248 170
249 170
250 170
251 170
252 170
253 170
254 170
255 170
256 170
257 170
258 170
259 170
260 170
261 170
262 170
263 170
264 170
265 170
266 170
267 170
268 170
269 170
270 170
271 170
272 170
273 170
274 170
275 170
276 170
277 170
278 170
279 170
280 170
281 170
282 170
283 170
284 170
285 170
286 170
287 170
288 170
289 170
290 170
291 170
292 170
293 170
294 170
295 170
296 170
297 170
298 170
299 170
300 170
301 170
302 170
303 170
304 170
305 170
306 170
307 170
308 170
309 170
310 170
311 170
312 170
313 170
314 170
315 170
316 170
317 170
318 170
319 170
320 170
321 170
322 170
323 170
324 170
325 170
326 170
327 170
328 170
329 170
330 170
331 170
332 170
333 170
334 170
335 170
336 170
337 170
338 170
339 170
340 170
341 170
342 170
343 170
344 170
345 170
346 170
347 170
348 170
199 171
200 171
201 171
202 171
203 171
204 171
205 171
206 171
207 171
208 171
209 171
210 171
211 171
212 171
213 171
214 171
215 171
216 171
217 171
218 171
219 171
220 171
221 171
222 171
223 171
224 171
225 171
226 171
227 171
228 171
229 171
230 171
231 171
232 171
233 171
234 171
235 171
236 171
237 171
238 171
239 171
240 171
241 171
242 171
243 171
244 171
245 171
246 171
247 171
248 171
249 171
250 171
251 171
252 171
253 171
254 171
255 171
256 171
257 171
258 171
259 171
260 171
261 171
262 171
263 171
264 171
265 171
266 171
267 171
268 171
269 171
270 171
271 171
272 171
273 171
274 171
275 171
276 171
277 171
278 171
279 171
280 171
281 171
282 171
283 171
284 171
285 171
286 171
287 171
288 171
289 171
290 171
291 171
292 171
293 171
294 171
295 171
296 171
297 171
298 171
299 171
300 171
301 171
302 171
303 171
304 171
305 171
306 171
307 171
308 171
309 171
310 171
311 171
312 171
313 171
314 171
315 171
316 171
317 171
318 171
319 171
320 171
321 171
322 171
323 171
324 171
325 171
326 171
327 171
328 171
329 171
330 171
331 171
332 171
333 171
334 171
335 171
336 171
337 171
338 171
339 171
340 171
341 171
342 171
343 171
344 171
345 171
346 171
347 171
348 171
199 172
200 172
201 172
202 172
203 172
204 172
205 172
206 172
207 172
208 172
209 172
210 172
211 172
212 172
213 172
214 172
215 172
216 172
217 172
218 172
219 172
220 172
221 172
222 172
223 172
224 172
225 172
226 172
227 172
228 172
229 172
230 172
231 172
232 172
233 172
234 172
235 172
236 172
237 172
238 172
239 172
240 172
241 172
242 172
243 172
244 172
245 172
246 172
247 172
248 172
249 172
250 172
251 172
252 172
253 172
254 172
255 172
256 172
257 172
258 172
259 172
260 172
261 172
262 172
263 172
264 172
265 172
266 172
267 172
268 172
269 172
270 172
271 172
272 172
273 172
274 172
275 172
276 172
277 172
278 172
279 172
280 172
281 172
282 172
283 172
284 172
285 172
286 172
287 172
288 172
289 172
290 172
291 172
292 172
293 172
294 172
295 172
296 172
297 172
298 172
299 172
300 172
301 172
302 172
303 172
304 172
305 172
306 172
307 172
308 172
309 172
310 172
311 172
312 172
313 172
314 172
315 172
316 172
317 172
318 172
319 172
320 172
321 172
322 172
323 172
324 172
325 172
326 172
327 172
328 172
329 172
330 172
331 172
332 172
333 172
334 172
335 172
336 172
337 172
338 172
339 172
340 172
341 172
342 172
343 172
344 172
345 172
346 172
347 172
348 172
199 173
200 173
201 173
202 173
203 173
204 173
205 173
206 173
207 173
208 173
209 173
210 173
211 173
212 173
213 173
214 173
215 173
216 173
217 173
218 173
219 173
220 173
221 173
222 173
223 173
224 173
225 173
226 173
227 173
228 173
229 173
230 173
231 173
232 173
233 173
234 173
235 173
236 173
237 173
238 173
239 173
240 173
241 173
242 173
243 173
244 173
245 173
246 173
247 173
248 173
249 173
250 173
251 173
252 173
253 173
254 173
255 173
256 173
257 173
258 173
259 173
260 173
261 173
262 173
263 173
264 173
265 173
266 173
267 173
268 173
269 173
270 173
271 173
272 173
273 173
274 173
275 173
276 173
277 173
278 173
279 173
280 173
281 173
282 173
283 173
284 173
285 173
286 173
287 173
288 173
289 173
290 173
291 173
292 173
293 173
294 173
295 173
296 173
297 173
298 173
299 173
300 173
301 173
302 173
303 173
304 173
305 173
306 173
307 173
308 173
309 173
310 173
311 173
312 173
313 173
314 173
315 173
316 173
317 173
318 173
319 173
320 173
321 173
322 173
323 173
324 173
325 173
326 173
327 173
328 173
329 173
330 173
331 173
332 173
333 173
334 173
335 173
336 173
337 173
338 173
339 173
340 173
341 173
342 173
343 173
344 173
345 173
346 173
347 173
348 173
199 174
200 174
201 174
202 174
203 174
204 174
205 174
206 174
207 174
208 174
209 174
210 174
211 174
212 174
213 174
214 174
215 174
216 174
217 174
218 174
219 174
220 174
221 174
222 174
223 174
224 174
225 174
226 174
227 174
228 174
229 174
230 174
231 174
232 174
233 174
234 174
235 174
236 174
237 174
238 174
239 174
240 174
241 174
242 174
243 174
244 174
245 174
246 174
247 174
248 174
249 174
250 174
251 174
252 174
253 174
254 174
255 174
256 174
257 174
258 174
259 174
260 174
261 174
262 174
263 174
264 174
265 174
266 174
267 174
268 174
269 174
270 174
271 174
272 174
273 174
274 174
275 174
276 174
277 174
278 174
279 174
280 174
281 174
282 174
283 174
284 174
285 174
286 174
287 174
288 174
289 174
290 174
291 174
292 174
293 174
294 174
295 174
296 174
297 174
298 174
299 174
300 174
301 174
302 174
303 174
304 174
305 174
306 174
307 174
308 174
309 174
310 174
311 174
312 174
313 174
314 174
315 174
316 174
317 174
318 174
319 174
320 174
321 174
322 174
323 174
324 174
325 174
326 174
327 174
328 174
329 174
330 174
331 174
332 174
333 174
334 174
335 174
336 174
337 174
338 174
339 174
340 174
341 174
342 174
343 174
344 174
345 174
346 174
347 174
348 174
199 175
200 175
201 175
202 175
203 175
204 175
205 175
206 175
207 175
208 175
209 175
210 175
211 175
212 175
213 175
214 175
215 175
216 175
217 175
218 175
219 175
220 175
221 175
222 175
223 175
224 175
225 175
226 175
227 175
228 175
229 175
230 175
231 175
232 175
233 175
234 175
235 175
236 175
237 175
238 175
239 175
240 175
241 175
242 175
243 175
244 175
245 175
246 175
247 175
248 175
249 175
250 175
251 175
252 175
253 175
254 175
255 175
256 175
257 175
258 175
259 175
260 175
261 175
262 175
263 175
264 175
265 175
266 175
267 175
268 175
269 175
270 175
271 175
272 175
273 175
274 175
275 175
276 175
277 175
278 175
279 175
280 175
281 175
282 175
283 175
284 175
285 175
286 175
287 175
288 175
289 175
290 175
291 175
292 175
293 175
294 175
295 175
296 175
297 175
298 175
299 175
300 175
301 175
302 175
303 175
304 175
305 175
306 175
307 175
308 175
309 175
310 175
311 175
312 175
313 175
314 175
315 175
316 175
317 175
318 175
319 175
320 175
321 175
322 175
323 175
324 175
325 175
326 175
327 175
328 175
329 175
330 175
331 175
332 175
333 175
334 175
335 175
336 175
337 175
338 175
339 175
340 175
341 175
342 175
343 175
344 175
345 175
346 175
347 175
348 175
199 176
200 176
201 176
202 176
203 176
204 176
205 176
206 176
207 176
208 176
209 176
210 176
211 176
212 176
213 176
214 176
215 176
216 176
217 176
218 176
219 176
220 176
221 176
222 176
223 176
224 176
225 176
226 176
227 176
228 176
229 176
230 176
231 176
232 176
233 176
234 176
235 176
236 176
237 176
238 176
239 176
240 176
241 176
242 176
243 176
244 176
245 176
246 176
247 176
248 176
249 176
250 176
251 176
252 176
253 176
254 176
255 176
256 176
257 176
258 176
259 176
260 176
261 176
262 176
263 176
264 176
265 176
266 176
267 176
268 176
269 176
270 176
271 176
272 176
273 176
274 176
275 176
276 176
277 176
278 176
279 176
280 176
281 176
282 176
283 176
284 176
285 176
286 176
287 176
288 176
289 176
290 176
291 176
292 176
293 176
294 176
295 176
296 176
297 176
298 176
299 176
300 176
301 176
302 176
303 176
304 176
305 176
306 176
307 176
308 176
309 176
310 176
311 176
312 176
313 176
314 176
315 176
316 176
317 176
318 176
319 176
320 176
321 176
322 176
323 176
324 176
325 176
326 176
327 176
328 176
329 176
330 176
331 176
332 176
333 176
334 176
335 176
336 176
337 176
338 176
339 176
340 176
341 176
342 176
343 176
344 176
345 176
346 176
347 176
348 176
199 177
200 177
201 177
202 177
203 177
204 177
205 177
206 177
207 177
208 177
209 177
210 177
211 177
212 177
213 177
214 177
215 177
216 177
217 177
218 177
219 177
220 177
221 177
222 177
223 177
224 177
225 177
226 177
227 177
228 177
229 177
230 177
231 177
232 177
233 177
234 177
235 177
236 177
237 177
238 177
239 177
240 177
241 177
242 177
243 177
244 177
245 177
246 177
247 177
248 177
249 177
250 177
251 177
252 177
253 177
254 177
255 177
256 177
257 177
258 177
259 177
260 177
261 177
262 177
263 177
264 177
265 177
266 177
267 177
268 177
269 177
270 177
271 177
272 177
273 177
274 177
275 177
276 177
277 177
278 177
279 177
280 177
281 177
282 177
283 177
284 177
285 177
286 177
287 177
288 177
289 177
290 177
291 177
292 177
293 177
294 177
295 177
296 177
297 177
298 177
299 177
300 177
301 177
302 177
303 177
304 177
305 177
306 177
307 177
308 177
309 177
310 177
311 177
312 177
313 177
314 177
315 177
316 177
317 177
318 177
319 177
320 177
321 177
322 177
323 177
324 177
325 177
326 177
327 177
328 177
329 177
330 177
331 177
332 177
333 177
334 177
335 177
336 177
337 177
338 177
339 177
340 177
341 177
342 177
343 177
344 177
345 177
346 177
347 177
348 177
199 178
200 178
201 178
202 178
203 178
204 178
205 178
206 178
207 178
208 178
209 178
210 178
211 178
212 178
213 178
214 178
215 178
216 178
217 178
218 178
219 178
220 178
221 178
222 178
223 178
224 178
225 178
226 178
227 178
228 178
229 178
230 178
231 178
232 178
233 178
234 178
235 178
236 178
237 178
238 178
239 178
240 178
241 178
242 178
243 178
244 178
245 178
246 178
247 178
248 178
249 178
250 178
251 178
252 178
253 178
254 178
255 178
256 178
257 178
258 178
259 178
260 178
261 178
262 178
263 178
264 178
265 178
266 178
267 178
268 178
269 178
270 178
271 178
272 178
273 178
274 178
275 178
276 178
277 178
278 178
279 178
280 178
281 178
282 178
283 178
284 178
285 178
286 178
287 178
288 178
289 178
290 178
291 178
292 178
293 178
294 178
295 178
296 178
297 178
298 178
299 178
300 178
301 178
302 178
303 178
304 178
305 178
306 178
307 178
308 178
309 178
310 178
311 178
312 178
313 178
314 178
315 178
316 178
317 178
318 178
319 178
320 178
321 178
322 178
323 178
324 178
325 178
326 178
327 178
328 178
329 178
330 178
331 178
332 178
333 178
334 178
335 178
336 178
337 178
338 178
339 178
340 178
341 178
342 178
343 178
344 178
345 178
346 178
347 178
348 178
199 179
200 179
201 179
202 179
203 179
204 179
205 179
206 179
207 179
208 179
209 179
210 179
211 179
212 179
213 179
214 179
215 179
216 179
217 179
218 179
219 179
220 179
221 179
222 179
223 179
224 179
225 179
226 179
227 179
228 179
229 179
230 179
231 179
232 179
233 179
234 179
235 179
236 179
237 179
238 179
239 179
240 179
241 179
242 179
243 179
244 179
245 179
246 179
247 179
248 179
249 179
250 179
251 179
252 179
253 179
254 179
255 179
256 179
257 179
258 179
259 179
260 179
261 179
262 179
263 179
264 179
265 179
266 179
267 179
268 179
269 179
270 179
271 179
272 179
273 179
274 179
275 179
276 179
277 179
278 179
279 179
280 179
281 179
282 179
283 179
284 179
285 179
286 179
287 179
288 179
289 179
290 179
291 179
292 179
293 179
294 179
295 179
296 179
297 179
298 179
299 179
300 179
301 179
302 179
303 179
304 179
305 179
306 179
307 179
308 179
309 179
310 179
311 179
312 179
313 179
314 179
315 179
316 179
317 179
318 179
319 179
320 179
321 179
322 179
323 179
324 179
325 179
326 179
327 179
328 179
329 179
330 179
331 179
332 179
333 179
334 179
335 179
336 179
337 179
338 179
339 179
340 179
341 179
342 179
343 179
344 179
345 179
346 179
347 179
348 179
199 180
200 180
201 180
202 180
203 180
204 180
205 180
206 180
207 180
208 180
209 180
210 180
211 180
212 180
213 180
214 180
215 180
216 180
217 180
218 180
219 180
220 180
221 180
222 180
223 180
224 180
225 180
226 180
227 180
228 180
229 180
230 180
231 180
232 180
233 180
234 180
235 180
236 180
237 180
238 180
239 180
240 180
241 180
242 180
243 180
244 180
245 180
246 180
247 180
248 180
249 180
250 180
251 180
252 180
253 180
254 180
255 180
256 180
257 180
258 180
259 180
260 180
261 180
262 180
263 180
264 180
265 180
266 180
267 180
268 180
269 180
270 180
271 180
272 180
273 180
274 180
275 180
276 180
277 180
278 180
279 180
280 180
281 180
282 180
283 180
284 180
285 180
286 180
287 180
288 180
289 180
290 180
291 180
292 180
293 180
294 180
295 180
296 180
297 180
298 180
299 180
300 180
301 180
302 180
303 180
304 180
305 180
306 180
307 180
308 180
309 180
310 180
311 180
312 180
313 180
314 180
315 180
316 180
317 180
318 180
319 180
320 180
321 180
322 180
323 180
324 180
325 180
326 180
327 180
328 180
329 180
330 180
331 180
332 180
333 180
334 180
335 180
336 180
337 180
338 180
339 180
340 180
341 180
342 180
343 180
344 180
345 180
346 180
347 180
348 180
199 181
200 181
201 181
202 181
203 181
204 181
205 181
206 181
207 181
208 181
209 181
210 181
211 181
212 181
213 181
214 181
215 181
216 181
217 181
218 181
219 181
220 181
221 181
222 181
223 181
224 181
225 181
226 181
227 181
228 181
229 181
230 181
231 181
232 181
233 181
234 181
235 181
236 181
237 181
238 181
239 181
240 181
241 181
242 181
243 181
244 181
245 181
246 181
247 181
248 181
249 181
250 181
251 181
252 181
253 181
254 181
255 181
256 181
257 181
258 181
259 181
260 181
261 181
262 181
263 181
264 181
265 181
266 181
267 181
268 181
269 181
270 181
271 181
272 181
273 181
274 181
275 181
276 181
277 181
278 181
279 181
280 181
281 181
282 181
283 181
284 181
285 181
286 181
287 181
288 181
289 181
290 181
291 181
292 181
293 181
294 181
295 181
296 181
297 181
298 181
299 181
300 181
301 181
302 181
303 181
304 181
305 181
306 181
307 181
308 181
309 181
310 181
311 181
312 181
313 181
314 181
315 181
316 181
317 181
318 181
319 181
320 181
321 181
322 181
323 181
324 181
325 181
326 181
327 181
328 181
329 181
330 181
331 181
332 181
333 181
334 181
335 181
336 181
337 181
338 181
339 181
340 181
341 181
342 181
343 181
344 181
345 181
346 181
347 181
348 181
199 182
200 182
201 182
202 182
203 182
204 182
205 182
206 182
207 182
208 182
209 182
210 182
211 182
212 182
213 182
214 182
215 182
216 182
217 182
218 182
219 182
220 182
221 182
222 182
223 182
224 182
225 182
226 182
227 182
228 182
229 182
230 182
231 182
232 182
233 182
234 182
235 182
236 182
237 182
238 182
239 182
240 182
241 182
242 182
243 182
244 182
245 182
246 182
247 182
248 182
249 182
250 182
251 182
252 182
253 182
254 182
255 182
256 182
257 182
258 182
259 182
260 182
261 182
262 182
263 182
264 182
265 182
266 182
267 182
268 182
269 182
270 182
271 182
272 182
273 182
274 182
275 182
276 182
277 182
278 182
279 182
280 182
281 182
282 182
283 182
284 182
285 182
286 182
287 182
288 182
289 182
290 182
291 182
292 182
293 182
294 182
295 182
296 182
297 182
298 182
299 182
300 182
301 182
302 182
303 182
304 182
305 182
306 182
307 182
308 182
309 182
310 182
311 182
312 182
313 182
314 182
315 182
316 182
317 182
318 182
319 182
320 182
321 182
322 182
323 182
324 182
325 182
326 182
327 182
328 182
329 182
330 182
331 182
332 182
333 182
334 182
335 182
336 182
337 182
338 182
339 182
340 182
341 182
342 182
343 182
344 182
345 182
346 182
347 182
348 182
199 183
200 183
201 183
202 183
203 183
204 183
205 183
206 183
207 183
208 183
209 183
210 183
211 183
212 183
213 183
214 183
215 183
216 183
217 183
218 183
219 183
220 183
221 183
222 183
223 183
224 183
225 183
226 183
227 183
228 183
229 183
230 183
231 183
232 183
233 183
234 183
235 183
236 183
237 183
238 183
239 183
240 183
241 183
242 183
243 183
244 183
245 183
246 183
247 183
248 183
249 183
250 183
251 183
252 183
253 183
254 183
255 183
256 183
257 183
258 183
259 183
260 183
261 183
262 183
263 183
264 183
265 183
266 183
267 183
268 183
269 183
270 183
271 183
272 183
273 183
274 183
275 183
276 183
277 183
278 183
279 183
280 183
281 183
282 183
283 183
284 183
285 183
286 183
287 183
288 183
289 183
290 183
291 183
292 183
293 183
294 183
295 183
296 183
297 183
298 183
299 183
300 183
301 183
302 183
303 183
304 183
305 183
306 183
307 183
308 183
309 183
310 183
311 183
312 183
313 183
314 183
315 183
316 183
317 183
318 183
319 183
320 183
321 183
322 183
323 183
324 183
325 183
326 183
327 183
328 183
329 183
330 183
331 183
332 183
333 183
334 183
335 183
336 183
337 183
338 183
339 183
340 183
341 183
342 183
343 183
344 183
345 183
346 183
347 183
348 183
199 184
200 184
201 184
202 184
203 184
204 184
205 184
206 184
207 184
208 184
209 184
210 184
211 184
212 184
213 184
214 184
215 184
216 184
217 184
218 184
219 184
220 184
221 184
222 184
223 184
224 184
225 184
226 184
227 184
228 184
229 184
230 184
231 184
232 184
233 184
234 184
235 184
236 184
237 184
238 184
239 184
240 184
241 184
242 184
243 184
244 184
245 184
246 184
247 184
248 184
249 184
250 184
251 184
252 184
253 184
254 184
255 184
256 184
257 184
258 184
259 184
260 184
261 184
262 184
263 184
264 184
265 184
266 184
267 184
268 184
269 184
270 184
271 184
272 184
273 184
274 184
275 184
276 184
277 184
278 184
279 184
280 184
281 184
282 184
283 184
284 184
285 184
286 184
287 184
288 184
289 184
290 184
291 184
292 184
293 184
294 184
295 184
296 184
297 184
298 184
299 184
300 184
301 184
302 184
303 184
304 184
305 184
306 184
307 184
308 184
309 184
310 184
311 184
312 184
313 184
314 184
315 184
316 184
317 184
318 184
319 184
320 184
321 184
322 184
323 184
324 184
325 184
326 184
327 184
328 184
329 184
330 184
331 184
332 184
333 184
334 184
335 184
336 184
337 184
338 184
339 184
340 184
341 184
342 184
343 184
344 184
345 184
346 184
347 184
348 184
199 185
200 185
201 185
202 185
203 185
204 185
205 185
206 185
207 185
208 185
209 185
210 185
211 185
212 185
213 185
214 185
215 185
216 185
217 185
218 185
219 185
220 185
221 185
222 185
223 185
224 185
225 185
226 185
227 185
228 185
229 185
230 185
231 185
232 185
233 185
234 185
235 185
236 185
237 185
238 185
239 185
240 185
241 185
242 185
243 185
244 185
245 185
246 185
247 185
248 185
249 185
250 185
251 185
252 185
253 185
254 185
255 185
256 185
257 185
258 185
259 185
260 185
261 185
262 185
263 185
264 185
265 185
266 185
267 185
268 185
269 185
270 185
271 185
272 185
273 185
274 185
275 185
276 185
277 185
278 185
279 185
280 185
281 185
282 185
283 185
284 185
285 185
286 185
287 185
288 185
289 185
290 185
291 185
292 185
293 185
294 185
295 185
296 185
297 185
298 185
299 185
300 185
301 185
302 185
303 185
304 185
305 185
306 185
307 185
308 185
309 185
310 185
311 185
312 185
313 185
314 185
315 185
316 185
317 185
318 185
319 185
320 185
321 185
322 185
323 185
324 185
325 185
326 185
327 185
328 185
329 185
330 185
331 185
332 185
333 185
334 185
335 185
336 185
337 185
338 185
339 185
340 185
341 185
342 185
343 185
344 185
345 185
346 185
347 185
348 185
199 186
200 186
201 186
202 186
203 186
204 186
205 186
206 186
207 186
208 186
209 186
210 186
211 186
212 186
213 186
214 186
215 186
216 186
217 186
218 186
219 186
220 186
221 186
222 186
223 186
224 186
225 186
226 186
227 186
228 186
229 186
230 186
231 186
232 186
233 186
234 186
235 186
236 186
237 186
238 186
239 186
240 186
241 186
242 186
243 186
244 186
245 186
246 186
247 186
248 186
249 186
250 186
251 186
252 186
253 186
254 186
255 186
256 186
257 186
258 186
259 186
260 186
261 186
262 186
263 186
264 186
265 186
266 186
267 186
268 186
269 186
270 186
271 186
272 186
273 186
274 186
275 186
276 186
277 186
278 186
279 186
280 186
281 186
282 186
283 186
284 186
285 186
286 186
287 186
288 186
289 186
290 186
291 186
292 186
293 186
294 186
295 186
296 186
297 186
298 186
299 186
300 186
301 186
302 186
303 186
304 186
305 186
306 186
307 186
308 186
309 186
310 186
311 186
312 186
313 186
314 186
315 186
316 186
317 186
318 186
319 186
320 186
321 186
322 186
323 186
324 186
325 186
326 186
327 186
328 186
329 186
330 186
331 186
332 186
333 186
334 186
335 186
336 186
337 186
338 186
339 186
340 186
341 186
342 186
343 186
344 186
345 186
346 186
347 186
348 186
199 187
200 187
201 187
202 187
203 187
204 187
205 187
206 187
207 187
208 187
209 187
210 187
211 187
212 187
213 187
214 187
215 187
216 187
217 187
218 187
219 187
220 187
221 187
222 187
223 187
224 187
225 187
226 187
227 187
228 187
229 187
230 187
231 187
232 187
233 187
234 187
235 187
236 187
237 187
238 187
239 187
240 187
241 187
242 187
243 187
244 187
245 187
246 187
247 187
248 187
249 187
250 187
251 187
252 187
253 187
254 187
255 187
256 187
257 187
258 187
259 187
260 187
261 187
262 187
263 187
264 187
265 187
266 187
267 187
268 187
269 187
270 187
271 187
272 187
273 187
274 187
275 187
276 187
277 187
278 187
279 187
280 187
281 187
282 187
283 187
284 187
285 187
286 187
287 187
288 187
289 187
290 187
291 187
292 187
293 187
294 187
295 187
296 187
297 187
298 187
299 187
300 187
301 187
302 187
303 187
304 187
305 187
306 187
307 187
308 187
309 187
310 187
311 187
312 187
313 187
314 187
315 187
316 187
317 187
318 187
319 187
320 187
321 187
322 187
323 187
324 187
325 187
326 187
327 187
328 187
329 187
330 187
331 187
332 187
333 187
334 187
335 187
336 187
337 187
338 187
339 187
340 187
341 187
342 187
343 187
344 187
345 187
346 187
347 187
348 187
199 188
200 188
201 188
202 188
203 188
204 188
205 188
206 188
207 188
208 188
209 188
210 188
211 188
212 188
213 188
214 188
215 188
216 188
217 188
218 188
219 188
220 188
221 188
222 188
223 188
224 188
225 188
226 188
227 188
228 188
229 188
230 188
231 188
232 188
233 188
234 188
235 188
236 188
237 188
238 188
239 188
240 188
241 188
242 188
243 188
244 188
245 188
246 188
247 188
248 188
249 188
250 188
251 188
252 188
253 188
254 188
255 188
256 188
257 188
258 188
259 188
260 188
261 188
262 188
263 188
264 188
265 188
266 188
267 188
268 188
269 188
270 188
271 188
272 188
273 188
274 188
275 188
276 188
277 188
278 188
279 188
280 188
281 188
282 188
283 188
284 188
285 188
286 188
287 188
288 188
289 188
290 188
291 188
292 188
293 188
294 188
295 188
296 188
297 188
298 188
299 188
300 188
301 188
302 188
303 188
304 188
305 188
306 188
307 188
308 188
309 188
310 188
311 188
312 188
313 188
314 188
315 188
316 188
317 188
318 188
319 188
320 188
321 188
322 188
323 188
324 188
325 188
326 188
327 188
328 188
329 188
330 188
331 188
332 188
333 188
334 188
335 188
336 188
337 188
338 188
339 188
340 188
341 188
342 188
343 188
344 188
345 188
346 188
347 188
348 188
199 189
200 189
201 189
202 189
203 189
204 189
205 189
206 189
207 189
208 189
209 189
210 189
211 189
212 189
213 189
214 189
215 189
216 189
217 189
218 189
219 189
220 189
221 189
222 189
223 189
224 189
225 189
226 189
227 189
228 189
229 189
230 189
231 189
232 189
233 189
234 189
235 189
236 189
237 189
238 189
239 189
240 189
241 189
242 189
243 189
244 189
245 189
246 189
247 189
248 189
249 189
250 189
251 189
252 189
253 189
254 189
255 189
256 189
257 189
258 189
259 189
260 189
261 189
262 189
263 189
264 189
265 189
266 189
267 189
268 189
269 189
270 189
271 189
272 189
273 189
274 189
275 189
276 189
277 189
278 189
279 189
280 189
281 189
282 189
283 189
284 189
285 189
286 189
287 189
288 189
289 189
290 189
291 189
292 189
293 189
294 189
295 189
296 189
297 189
298 189
299 189
300 189
301 189
302 189
303 189
304 189
305 189
306 189
307 189
308 189
309 189
310 189
311 189
312 189
313 189
314 189
315 189
316 189
317 189
318 189
319 189
320 189
321 189
322 189
323 189
324 189
325 189
326 189
327 189
328 189
329 189
330 189
331 189
332 189
333 189
334 189
335 189
336 189
337 189
338 189
339 189
340 189
341 189
342 189
343 189
344 189
345 189
346 189
347 189
348 189
199 190
200 190
201 190
202 190
203 190
204 190
205 190
206 190
207 190
208 190
209 190
210 190
211 190
212 190
213 190
214 190
215 190
216 190
217 190
218 190
219 190
220 190
221 190
222 190
223 190
224 190
225 190
226 190
227 190
228 190
229 190
230 190
231 190
232 190
233 190
234 190
235 190
236 190
237 190
238 190
239 190
240 190
241 190
242 190
243 190
244 190
245 190
246 190
247 190
248 190
249 190
250 190
251 190
252 190
253 190
254 190
255 190
256 190
257 190
258 190
259 190
260 190
261 190
262 190
263 190
264 190
265 190
266 190
267 190
268 190
269 190
270 190
271 190
272 190
273 190
274 190
275 190
276 190
277 190
278 190
279 190
280 190
281 190
282 190
283 190
284 190
285 190
286 190
287 190
288 190
289 190
290 190
291 190
292 190
293 190
294 190
295 190
296 190
297 190
298 190
299 190
300 190
301 190
302 190
303 190
304 190
305 190
306 190
307 190
308 190
309 190
310 190
311 190
312 190
313 190
314 190
315 190
316 190
317 190
318 190
319 190
320 190
321 190
322 190
323 190
324 190
325 190
326 190
327 190
328 190
329 190
330 190
331 190
332 190
333 190
334 190
335 190
336 190
337 190
338 190
339 190
340 190
341 190
342 190
343 190
344 190
345 190
346 190
347 190
348 190
199 191
200 191
201 191
202 191
203 191
204 191
205 191
206 191
207 191
208 191
209 191
210 191
211 191
212 191
213 191
214 191
215 191
216 191
217 191
218 191
219 191
220 191
221 191
222 191
223 191
224 191
225 191
226 191
227 191
228 191
229 191
230 191
231 191
232 191
233 191
234 191
235 191
236 191
237 191
238 191
239 191
240 191
241 191
242 191
243 191
244 191
245 191
246 191
247 191
248 191
249 191
250 191
251 191
252 191
253 191
254 191
255 191
256 191
257 191
258 191
259 191
260 191
261 191
262 191
263 191
264 191
265 191
266 191
267 191
268 191
269 191
270 191
271 191
272 191
273 191
274 191
275 191
276 191
277 191
278 191
279 191
280 191
281 191
282 191
283 191
284 191
285 191
286 191
287 191
288 191
289 191
290 191
291 191
292 191
293 191
294 191
295 191
296 191
297 191
298 191
299 191
300 191
301 191
302 191
303 191
304 191
305 191
306 191
307 191
308 191
309 191
310 191
311 191
312 191
313 191
314 191
315 191
316 191
317 191
318 191
319 191
320 191
321 191
322 191
323 191
324 191
325 191
326 191
327 191
328 191
329 191
330 191
331 191
332 191
333 191
334 191
335 191
336 191
337 191
338 191
339 191
340 191
341 191
342 191
343 191
344 191
345 191
346 191
347 191
348 191
199 192
200 192
201 192
202 192
203 192
204 192
205 192
206 192
207 192
208 192
209 192
210 192
211 192
212 192
213 192
214 192
215 192
216 192
217 192
218 192
219 192
220 192
221 192
222 192
223 192
224 192
225 192
226 192
227 192
228 192
229 192
230 192
231 192
232 192
233 192
234 192
235 192
236 192
237 192
238 192
239 192
240 192
241 192
242 192
243 192
244 192
245 192
246 192
247 192
248 192
249 192
250 192
251 192
252 192
253 192
254 192
255 192
256 192
257 192
258 192
259 192
260 192
261 192
262 192
263 192
264 192
265 192
266 192
267 192
268 192
269 192
270 192
271 192
272 192
273 192
274 192
275 192
276 192
277 192
278 192
279 192
280 192
281 192
282 192
283 192
284 192
285 192
286 192
287 192
288 192
289 192
290 192
291 192
292 192
293 192
294 192
295 192
296 192
297 192
298 192
299 192
300 192
301 192
302 192
303 192
304 192
305 192
306 192
307 192
308 192
309 192
310 192
311 192
312 192
313 192
314 192
315 192
316 192
317 192
318 192
319 192
320 192
321 192
322 192
323 192
324 192
325 192
326 192
327 192
328 192
329 192
330 192
331 192
332 192
333 192
334 192
335 192
336 192
337 192
338 192
339 192
340 192
341 192
342 192
343 192
344 192
345 192
346 192
347 192
348 192
373 217
374 217
375 217
376 217
377 217
378 217
379 217
380 217
381 217
382 217
383 217
384 217
385 217
386 217
387 217
388 217
389 217
390 217
391 217
392 217
393 217
394 217
395 217
396 217
397 217
398 217
399 217
400 217
401 217
402 217
403 217
404 217
405 217
406 217
407 217
408 217
409 217
410 217
411 217
412 217
413 217
414 217
415 217
416 217
417 217
418 217
419 217
420 217
421 217
422 217
423 217
424 217
425 217
426 217
427 217
428 217
429 217
430 217
431 217
432 217
433 217
434 217
435 217
436 217
437 217
438 217
439 217
440 217
441 217
442 217
443 217
444 217
445 217
446 217
447 217
448 217
449 217
450 217
451 217
452 217
453 217
454 217
455 217
456 217
457 217
458 217
459 217
460 217
461 217
462 217
463 217
464 217
465 217
466 217
467 217
468 217
469 217
470 217
471 217
472 217
473 217
474 217
475 217
476 217
477 217
478 217
479 217
480 217
481 217
482 217
483 217
484 217
485 217
486 217
487 217
488 217
489 217
490 217
491 217
492 217
493 217
494 217
495 217
496 217
497 217
498 217
499 217
500 217
501 217
502 217
503 217
504 217
505 217
506 217
507 217
508 217
509 217
510 217
511 217
512 217
513 217
514 217
515 217
516 217
517 217
518 217
519 217
520 217
521 217
522 217
523 217
524 217
525 217
526 217
527 217
528 217
529 217
373 218
374 218
375 218
376 218
377 218
378 218
379 218
380 218
381 218
382 218
383 218
384 218
385 218
386 218
387 218
388 218
389 218
390 218
391 218
392 218
393 218
394 218
395 218
396 218
397 218
398 218
399 218
400 218
401 218
402 218
403 218
404 218
405 218
406 218
407 218
408 218
409 218
410 218
411 218
412 218
413 218
414 218
415 218
416 218
417 218
418 218
419 218
420 218
421 218
422 218
423 218
424 218
425 218
426 218
427 218
428 218
429 218
430 218
431 218
432 218
433 218
434 218
435 218
436 218
437 218
438 218
439 218
440 218
441 218
442 218
443 218
444 218
445 218
446 218
447 218
448 218
449 218
450 218
451 218
452 218
453 218
454 218
455 218
456 218
457 218
458 218
459 218
460 218
461 218
462 218
463 218
464 218
465 218
466 218
467 218
468 218
469 218
470 218
471 218
472 218
473 218
474 218
475 218
476 218
477 218
478 218
479 218
480 218
481 218
482 218
483 218
484 218
485 218
486 218
487 218
488 218
489 218
490 218
491 218
492 218
493 218
494 218
495 218
496 218
497 218
498 218
499 218
500 218
501 218
502 218
503 218
504 218
505 218
506 218
507 218
508 218
509 218
510 218
511 218
512 218
513 218
514 218
515 218
516 218
517 218
518 218
519 218
520 218
521 218
522 218
523 218
524 218
525 218
526 218
527 218
528 218
529 218
373 219
374 219
375 219
376 219
377 219
378 219
379 219
380 219
381 219
382 219
383 219
384 219
385 219
386 219
387 219
388 219
389 219
390 219
391 219
392 219
393 219
394 219
395 219
396 219
397 219
398 219
399 219
400 219
401 219
402 219
403 219
404 219
405 219
406 219
407 219
408 219
409 219
410 219
411 219
412 219
413 219
414 219
415 219
416 219
417 219
418 219
419 219
420 219
421 219
422 219
423 219
424 219
425 219
426 219
427 219
428 219
429 219
430 219
431 219
432 219
433 219
434 219
435 219
436 219
437 219
438 219
439 219
440 219
441 219
442 219
443 219
444 219
445 219
446 219
447 219
448 219
449 219
450 219
451 219
452 219
453 219
454 219
455 219
456 219
457 219
458 219
459 219
460 219
461 219
462 219
463 219
464 219
465 219
466 219
467 219
468 219
469 219
470 219
471 219
472 219
473 219
474 219
475 219
476 219
477 219
478 219
479 219
480 219
481 219
482 219
483 219
484 219
485 219
486 219
487 219
488 219
489 219
490 219
491 219
492 219
493 219
494 219
495 219
496 219
497 219
498 219
499 219
500 219
501 219
502 219
503 219
504 219
505 219
506 219
507 219
508 219
509 219
510 219
511 219
512 219
513 219
514 219
515 219
516 219
517 219
518 219
519 219
520 219
521 219
522 219
523 219
524 219
525 219
526 219
527 219
528 219
529 219
373 220
374 220
375 220
376 220
377 220
378 220
379 220
380 220
381 220
382 220
383 220
384 220
385 220
386 220
387 220
388 220
389 220
390 220
391 220
392 220
393 220
394 220
395 220
396 220
397 220
398 220
399 220
400 220
401 220
402 220
403 220
404 220
405 220
406 220
407 220
408 220
409 220
410 220
411 220
412 220
413 220
414 220
415 220
416 220
417 220
418 220
419 220
420 220
421 220
422 220
423 220
424 220
425 220
426 220
427 220
428 220
429 220
430 220
431 220
432 220
433 220
434 220
435 220
436 220
437 220
438 220
439 220
440 220
441 220
442 220
443 220
444 220
445 220
446 220
447 220
448 220
449 220
450 220
451 220
452 220
453 220
454 220
455 220
456 220
457 220
458 220
459 220
460 220
461 220
462 220
463 220
464 220
465 220
466 220
467 220
468 220
469 220
470 220
471 220
472 220
473 220
474 220
475 220
476 220
477 220
478 220
479 220
480 220
481 220
482 220
483 220
484 220
485 220
486 220
487 220
488 220
489 220
490 220
491 220
492 220
493 220
494 220
495 220
496 220
497 220
498 220
499 220
500 220
501 220
502 220
503 220
504 220
505 220
506 220
507 220
508 220
509 220
510 220
511 220
512 220
513 220
514 220
515 220
516 220
517 220
518 220
519 220
520 220
521 220
522 220
523 220
524 220
525 220
526 220
527 220
528 220
529 220
373 221
374 221
375 221
376 221
377 221
378 221
379 221
380 221
381 221
382 221
383 221
384 221
385 221
386 221
387 221
388 221
389 221
390 221
391 221
392 221
393 221
394 221
395 221
396 221
397 221
398 221
399 221
400 221
401 221
402 221
403 221
404 221
405 221
406 221
407 221
408 221
409 221
410 221
411 221
412 221
413 221
414 221
415 221
416 221
417 221
418 221
419 221
420 221
421 221
422 221
423 221
424 221
425 221
426 221
427 221
428 221
429 221
430 221
431 221
432 221
433 221
434 221
435 221
436 221
437 221
438 221
439 221
440 221
441 221
442 221
443 221
444 221
445 221
446 221
447 221
448 221
449 221
450 221
451 221
452 221
453 221
454 221
455 221
456 221
457 221
458 221
459 221
460 221
461 221
462 221
463 221
464 221
465 221
466 221
467 221
468 221
469 221
470 221
471 221
472 221
473 221
474 221
475 221
476 221
477 221
478 221
479 221
480 221
481 221
482 221
483 221
484 221
485 221
486 221
487 221
488 221
489 221
490 221
491 221
492 221
493 221
494 221
495 221
496 221
497 221
498 221
499 221
500 221
501 221
502 221
503 221
504 221
505 221
506 221
507 221
508 221
509 221
510 221
511 221
512 221
513 221
514 221
515 221
516 221
517 221
518 221
519 221
520 221
521 221
522 221
523 221
524 221
525 221
526 221
527 221
528 221
529 221
373 222
374 222
375 222
376 222
377 222
378 222
379 222
380 222
381 222
382 222
383 222
384 222
385 222
386 222
387 222
388 222
389 222
390 222
391 222
392 222
393 222
394 222
395 222
396 222
397 222
398 222
399 222
400 222
401 222
402 222
403 222
404 222
405 222
406 222
407 222
408 222
409 222
410 222
411 222
412 222
413 222
414 222
415 222
416 222
417 222
418 222
419 222
420 222
421 222
422 222
423 222
424 222
425 222
426 222
427 222
428 222
429 222
430 222
431 222
432 222
433 222
434 222
435 222
436 222
437 222
438 222
439 222
440 222
441 222
442 222
443 222
444 222
445 222
446 222
447 222
448 222
449 222
450 222
451 222
452 222
453 222
454 222
455 222
456 222
457 222
458 222
459 222
460 222
461 222
462 222
463 222
464 222
465 222
466 222
467 222
468 222
469 222
470 222
471 222
472 222
473 222
474 222
475 222
476 222
477 222
478 222
479 222
480 222
481 222
482 222
483 222
484 222
485 222
486 222
487 222
488 222
489 222
490 222
491 222
492 222
493 222
494 222
495 222
496 222
497 222
498 222
499 222
500 222
501 222
502 222
503 222
504 222
505 222
506 222
507 222
508 222
509 222
510 222
511 222
512 222
513 222
514 222
515 222
516 222
517 222
518 222
519 222
520 222
521 222
522 222
523 222
524 222
525 222
526 222
527 222
528 222
529 222
373 223
374 223
375 223
376 223
377 223
378 223
379 223
380 223
381 223
382 223
383 223
384 223
385 223
386 223
387 223
388 223
389 223
390 223
391 223
392 223
393 223
394 223
395 223
396 223
397 223
398 223
399 223
400 223
401 223
402 223
403 223
404 223
405 223
406 223
407 223
408 223
409 223
410 223
411 223
412 223
413 223
414 223
415 223
416 223
417 223
418 223
419 223
420 223
421 223
422 223
423 223
424 223
425 223
426 223
427 223
428 223
429 223
430 223
431 223
432 223
433 223
434 223
435 223
436 223
437 223
438 223
439 223
440 223
441 223
442 223
443 223
444 223
445 223
446 223
447 223
448 223
449 223
450 223
451 223
452 223
453 223
454 223
455 223
456 223
457 223
458 223
459 223
460 223
461 223
462 223
463 223
464 223
465 223
466 223
467 223
468 223
469 223
470 223
471 223
472 223
473 223
474 223
475 223
476 223
477 223
478 223
479 223
480 223
481 223
482 223
483 223
484 223
485 223
486 223
487 223
488 223
489 223
490 223
491 223
492 223
493 223
494 223
495 223
496 223
497 223
498 223
499 223
500 223
501 223
502 223
503 223
504 223
505 223
506 223
507 223
508 223
509 223
510 223
511 223
512 223
513 223
514 223
515 223
516 223
517 223
518 223
519 223
520 223
521 223
522 223
523 223
524 223
525 223
526 223
527 223
528 223
529 223
373 224
374 224
375 224
376 224
377 224
378 224
379 224
380 224
381 224
382 224
383 224
384 224
385 224
386 224
387 224
388 224
389 224
390 224
391 224
392 224
393 224
394 224
395 224
396 224
397 224
398 224
399 224
400 224
401 224
402 224
403 224
404 224
405 224
406 224
407 224
408 224
409 224
410 224
411 224
412 224
413 224
414 224
415 224
416 224
417 224
418 224
419 224
420 224
421 224
422 224
423 224
424 224
425 224
426 224
427 224
428 224
429 224
430 224
431 224
432 224
433 224
434 224
435 224
436 224
437 224
438 224
439 224
440 224
441 224
442 224
443 224
444 224
445 224
446 224
447 224
448 224
449 224
450 224
451 224
452 224
453 224
454 224
455 224
456 224
457 224
458 224
459 224
460 224
461 224
462 224
463 224
464 224
465 224
466 224
467 224
468 224
469 224
470 224
471 224
472 224
473 224
474 224
475 224
476 224
477 224
478 224
479 224
480 224
481 224
482 224
483 224
484 224
485 224
486 224
487 224
488 224
489 224
490 224
491 224
492 224
493 224
494 224
495 224
496 224
497 224
498 224
499 224
500 224
501 224
502 224
503 224
504 224
505 224
506 224
507 224
508 224
509 224
510 224
511 224
512 224
513 224
514 224
515 224
516 224
517 224
518 224
519 224
520 224
521 224
522 224
523 224
524 224
525 224
526 224
527 224
528 224
529 224
373 225
374 225
375 225
376 225
377 225
378 225
379 225
380 225
381 225
382 225
383 225
384 225
385 225
386 225
387 225
388 225
389 225
390 225
391 225
392 225
393 225
394 225
395 225
396 225
397 225
398 225
399 225
400 225
401 225
402 225
403 225
404 225
405 225
406 225
407 225
408 225
409 225
410 225
411 225
412 225
413 225
414 225
415 225
416 225
417 225
418 225
419 225
420 225
421 225
422 225
423 225
424 225
425 225
426 225
427 225
428 225
429 225
430 225
431 225
432 225
433 225
434 225
435 225
436 225
437 225
438 225
439 225
440 225
441 225
442 225
443 225
444 225
445 225
446 225
447 225
448 225
449 225
450 225
451 225
452 225
453 225
454 225
455 225
456 225
457 225
458 225
459 225
460 225
461 225
462 225
463 225
464 225
465 225
466 225
467 225
468 225
469 225
470 225
471 225
472 225
473 225
474 225
475 225
476 225
477 225
478 225
479 225
480 225
481 225
482 225
483 225
484 225
485 225
486 225
487 225
488 225
489 225
490 225
491 225
492 225
493 225
494 225
495 225
496 225
497 225
498 225
499 225
500 225
501 225
502 225
503 225
504 225
505 225
506 225
507 225
508 225
509 225
510 225
511 225
512 225
513 225
514 225
515 225
516 225
517 225
518 225
519 225
520 225
521 225
522 225
523 225
524 225
525 225
526 225
527 225
528 225
529 225
373 226
374 226
375 226
376 226
377 226
378 226
379 226
380 226
381 226
382 226
383 226
384 226
385 226
386 226
387 226
388 226
389 226
390 226
391 226
392 226
393 226
394 226
395 226
396 226
397 226
398 226
399 226
400 226
401 226
402 226
403 226
404 226
405 226
406 226
407 226
408 226
409 226
410 226
411 226
412 226
413 226
414 226
415 226
416 226
417 226
418 226
419 226
420 226
421 226
422 226
423 226
424 226
425 226
426 226
427 226
428 226
429 226
430 226
431 226
432 226
433 226
434 226
435 226
436 226
437 226
438 226
439 226
440 226
441 226
442 226
443 226
444 226
445 226
446 226
447 226
448 226
449 226
450 226
451 226
452 226
453 226
454 226
455 226
456 226
457 226
458 226
459 226
460 226
461 226
462 226
463 226
464 226
465 226
466 226
467 226
468 226
469 226
470 226
471 226
472 226
473 226
474 226
475 226
476 226
477 226
478 226
479 226
480 226
481 226
482 226
483 226
484 226
485 226
486 226
487 226
488 226
489 226
490 226
491 226
492 226
493 226
494 226
495 226
496 226
497 226
498 226
499 226
500 226
501 226
502 226
503 226
504 226
505 226
506 226
507 226
508 226
509 226
510 226
511 226
512 226
513 226
514 226
515 226
516 226
517 226
518 226
519 226
520 226
521 226
522 226
523 226
524 226
525 226
526 226
527 226
528 226
529 226
373 227
374 227
375 227
376 227
377 227
378 227
379 227
380 227
381 227
382 227
383 227
384 227
385 227
386 227
387 227
388 227
389 227
390 227
391 227
392 227
393 227
394 227
395 227
396 227
397 227
398 227
399 227
400 227
401 227
402 227
403 227
404 227
405 227
406 227
407 227
408 227
409 227
410 227
411 227
412 227
413 227
414 227
415 227
416 227
417 227
418 227
419 227
420 227
421 227
422 227
423 227
424 227
425 227
426 227
427 227
428 227
429 227
430 227
431 227
432 227
433 227
434 227
435 227
436 227
437 227
438 227
439 227
440 227
441 227
442 227
443 227
444 227
445 227
446 227
447 227
448 227
449 227
450 227
451 227
452 227
453 227
454 227
455 227
456 227
457 227
458 227
459 227
460 227
461 227
462 227
463 227
464 227
465 227
466 227
467 227
468 227
469 227
470 227
471 227
472 227
473 227
474 227
475 227
476 227
477 227
478 227
479 227
480 227
481 227
482 227
483 227
484 227
485 227
486 227
487 227
488 227
489 227
490 227
491 227
492 227
493 227
494 227
495 227
496 227
497 227
498 227
499 227
500 227
501 227
502 227
503 227
504 227
505 227
506 227
507 227
508 227
509 227
510 227
511 227
512 227
513 227
514 227
515 227
516 227
517 227
518 227
519 227
520 227
521 227
522 227
523 227
524 227
525 227
526 227
527 227
528 227
529 227
373 228
374 228
375 228
376 228
377 228
378 228
379 228
380 228
381 228
382 228
383 228
384 228
385 228
386 228
387 228
388 228
389 228
390 228
391 228
392 228
393 228
394 228
395 228
396 228
397 228
398 228
399 228
400 228
401 228
402 228
403 228
404 228
405 228
406 228
407 228
408 228
409 228
410 228
411 228
412 228
413 228
414 228
415 228
416 228
417 228
418 228
419 228
420 228
421 228
422 228
423 228
424 228
425 228
426 228
427 228
428 228
429 228
430 228
431 228
432 228
433 228
434 228
435 228
436 228
437 228
438 228
439 228
440 228
441 228
442 228
443 228
444 228
445 228
446 228
447 228
448 228
449 228
450 228
451 228
452 228
453 228
454 228
455 228
456 228
457 228
458 228
459 228
460 228
461 228
462 228
463 228
464 228
465 228
466 228
467 228
468 228
469 228
470 228
471 228
472 228
473 228
474 228
475 228
476 228
477 228
478 228
479 228
480 228
481 228
482 228
483 228
484 228
485 228
486 228
487 228
488 228
489 228
490 228
491 228
492 228
493 228
494 228
495 228
496 228
497 228
498 228
499 228
500 228
501 228
502 228
503 228
504 228
505 228
506 228
507 228
508 228
509 228
510 228
511 228
512 228
513 228
514 228
515 228
516 228
517 228
518 228
519 228
520 228
521 228
522 228
523 228
524 228
525 228
526 228
527 228
528 228
529 228
373 229
374 229
375 229
376 229
377 229
378 229
379 229
380 229
381 229
382 229
383 229
384 229
385 229
386 229
387 229
388 229
389 229
390 229
391 229
392 229
393 229
394 229
395 229
396 229
397 229
398 229
399 229
400 229
401 229
402 229
403 229
404 229
405 229
406 229
407 229
408 229
409 229
410 229
411 229
412 229
413 229
414 229
415 229
416 229
417 229
418 229
419 229
420 229
421 229
422 229
423 229
424 229
425 229
426 229
427 229
428 229
429 229
430 229
431 229
432 229
433 229
434 229
435 229
436 229
437 229
438 229
439 229
440 229
441 229
442 229
443 229
444 229
445 229
446 229
447 229
448 229
449 229
450 229
451 229
452 229
453 229
454 229
455 229
456 229
457 229
458 229
459 229
460 229
461 229
462 229
463 229
464 229
465 229
466 229
467 229
468 229
469 229
470 229
471 229
472 229
473 229
474 229
475 229
476 229
477 229
478 229
479 229
480 229
481 229
482 229
483 229
484 229
485 229
486 229
487 229
488 229
489 229
490 229
491 229
492 229
493 229
494 229
495 229
496 229
497 229
498 229
499 229
500 229
501 229
502 229
503 229
504 229
505 229
506 229
507 229
508 229
509 229
510 229
511 229
512 229
513 229
514 229
515 229
516 229
517 229
518 229
519 229
520 229
521 229
522 229
523 229
524 229
525 229
526 229
527 229
528 229
529 229
373 230
374 230
375 230
376 230
377 230
378 230
379 230
380 230
381 230
382 230
383 230
384 230
385 230
386 230
387 230
388 230
389 230
390 230
391 230
392 230
393 230
394 230
395 230
396 230
397 230
398 230
399 230
400 230
401 230
402 230
403 230
404 230
405 230
406 230
407 230
408 230
409 230
410 230
411 230
412 230
413 230
414 230
415 230
416 230
417 230
418 230
419 230
420 230
421 230
422 230
423 230
424 230
425 230
426 230
427 230
428 230
429 230
430 230
431 230
432 230
433 230
434 230
435 230
436 230
437 230
438 230
439 230
440 230
441 230
442 230
443 230
444 230
445 230
446 230
447 230
448 230
449 230
450 230
451 230
452 230
453 230
454 230
455 230
456 230
457 230
458 230
459 230
460 230
461 230
462 230
463 230
464 230
465 230
466 230
467 230
468 230
469 230
470 230
471 230
472 230
473 230
474 230
475 230
476 230
477 230
478 230
479 230
480 230
481 230
482 230
483 230
484 230
485 230
486 230
487 230
488 230
489 230
490 230
491 230
492 230
493 230
494 230
495 230
496 230
497 230
498 230
499 230
500 230
501 230
502 230
503 230
504 230
505 230
506 230
507 230
508 230
509 230
510 230
511 230
512 230
513 230
514 230
515 230
516 230
517 230
518 230
519 230
520 230
521 230
522 230
523 230
524 230
525 230
526 230
527 230
528 230
529 230
373 231
374 231
375 231
376 231
377 231
378 231
379 231
380 231
381 231
382 231
383 231
384 231
385 231
386 231
387 231
388 231
389 231
390 231
391 231
392 231
393 231
394 231
395 231
396 231
397 231
398 231
399 231
400 231
401 231
402 231
403 231
404 231
405 231
406 231
407 231
408 231
409 231
410 231
411 231
412 231
413 231
414 231
415 231
416 231
417 231
418 231
419 231
420 231
421 231
422 231
423 231
424 231
425 231
426 231
427 231
428 231
429 231
430 231
431 231
432 231
433 231
434 231
435 231
436 231
437 231
438 231
439 231
440 231
441 231
442 231
443 231
444 231
445 231
446 231
447 231
448 231
449 231
450 231
451 231
452 231
453 231
454 231
455 231
456 231
457 231
458 231
459 231
460 231
461 231
462 231
463 231
464 231
465 231
466 231
467 231
468 231
469 231
470 231
471 231
472 231
473 231
474 231
475 231
476 231
477 231
478 231
479 231
480 231
481 231
482 231
483 231
484 231
485 231
486 231
487 231
488 231
489 231
490 231
491 231
492 231
493 231
494 231
495 231
496 231
497 231
498 231
499 231
500 231
501 231
502 231
503 231
504 231
505 231
506 231
507 231
508 231
509 231
510 231
511 231
512 231
513 231
514 231
515 231
516 231
517 231
518 231
519 231
520 231
521 231
522 231
523 231
524 231
525 231
526 231
527 231
528 231
529 231
373 232
374 232
375 232
376 232
377 232
378 232
379 232
380 232
381 232
382 232
383 232
384 232
385 232
386 232
387 232
388 232
389 232
390 232
391 232
392 232
393 232
394 232
395 232
396 232
397 232
398 232
399 232
400 232
401 232
402 232
403 232
404 232
405 232
406 232
407 232
408 232
409 232
410 232
411 232
412 232
413 232
414 232
415 232
416 232
417 232
418 232
419 232
420 232
421 232
422 232
423 232
424 232
425 232
426 232
427 232
428 232
429 232
430 232
431 232
432 232
433 232
434 232
435 232
436 232
437 232
438 232
439 232
440 232
441 232
442 232
443 232
444 232
445 232
446 232
447 232
448 232
449 232
450 232
451 232
452 232
453 232
454 232
455 232
456 232
457 232
458 232
459 232
460 232
461 232
462 232
463 232
464 232
465 232
466 232
467 232
468 232
469 232
470 232
471 232
472 232
473 232
474 232
475 232
476 232
477 232
478 232
479 232
480 232
481 232
482 232
483 232
484 232
485 232
486 232
487 232
488 232
489 232
490 232
491 232
492 232
493 232
494 232
495 232
496 232
497 232
498 232
499 232
500 232
501 232
502 232
503 232
504 232
505 232
506 232
507 232
508 232
509 232
510 232
511 232
512 232
513 232
514 232
515 232
516 232
517 232
518 232
519 232
520 232
521 232
522 232
523 232
524 232
525 232
526 232
527 232
528 232
529 232
373 233
374 233
375 233
376 233
377 233
378 233
379 233
380 233
381 233
382 233
383 233
384 233
385 233
386 233
387 233
388 233
389 233
390 233
391 233
392 233
393 233
394 233
395 233
396 233
397 233
398 233
399 233
400 233
401 233
402 233
403 233
404 233
405 233
406 233
407 233
408 233
409 233
410 233
411 233
412 233
413 233
414 233
415 233
416 233
417 233
418 233
419 233
420 233
421 233
422 233
423 233
424 233
425 233
426 233
427 233
428 233
429 233
430 233
431 233
432 233
433 233
434 233
435 233
436 233
437 233
438 233
439 233
440 233
441 233
442 233
443 233
444 233
445 233
446 233
447 233
448 233
449 233
450 233
451 233
452 233
453 233
454 233
455 233
456 233
457 233
458 233
459 233
460 233
461 233
462 233
463 233
464 233
465 233
466 233
467 233
468 233
469 233
470 233
471 233
472 233
473 233
474 233
475 233
476 233
477 233
478 233
479 233
480 233
481 233
482 233
483 233
484 233
485 233
486 233
487 233
488 233
489 233
490 233
491 233
492 233
493 233
494 233
495 233
496 233
497 233
498 233
499 233
500 233
501 233
502 233
503 233
504 233
505 233
506 233
507 233
508 233
509 233
510 233
511 233
512 233
513 233
514 233
515 233
516 233
517 233
518 233
519 233
520 233
521 233
522 233
523 233
524 233
525 233
526 233
527 233
528 233
529 233
373 234
374 234
375 234
376 234
377 234
378 234
379 234
380 234
381 234
382 234
383 234
384 234
385 234
386 234
387 234
388 234
389 234
390 234
391 234
392 234
393 234
394 234
395 234
396 234
397 234
398 234
399 234
400 234
401 234
402 234
403 234
404 234
405 234
406 234
407 234
408 234
409 234
410 234
411 234
412 234
413 234
414 234
415 234
416 234
417 234
418 234
419 234
420 234
421 234
422 234
423 234
424 234
425 234
426 234
427 234
428 234
429 234
430 234
431 234
432 234
433 234
434 234
435 234
436 234
437 234
438 234
439 234
440 234
441 234
442 234
443 234
444 234
445 234
446 234
447 234
448 234
449 234
450 234
451 234
452 234
453 234
454 234
455 234
456 234
457 234
458 234
459 234
460 234
461 234
462 234
463 234
464 234
465 234
466 234
467 234
468 234
469 234
470 234
471 234
472 234
473 234
474 234
475 234
476 234
477 234
478 234
479 234
480 234
481 234
482 234
483 234
484 234
485 234
486 234
487 234
488 234
489 234
490 234
491 234
492 234
493 234
494 234
495 234
496 234
497 234
498 234
499 234
500 234
501 234
502 234
503 234
504 234
505 234
506 234
507 234
508 234
509 234
510 234
511 234
512 234
513 234
514 234
515 234
516 234
517 234
518 234
519 234
520 234
521 234
522 234
523 234
524 234
525 234
526 234
527 234
528 234
529 234
373 235
374 235
375 235
376 235
377 235
378 235
379 235
380 235
381 235
382 235
383 235
384 235
385 235
386 235
387 235
388 235
389 235
390 235
391 235
392 235
393 235
394 235
395 235
396 235
397 235
398 235
399 235
400 235
401 235
402 235
403 235
404 235
405 235
406 235
407 235
408 235
409 235
410 235
411 235
412 235
413 235
414 235
415 235
416 235
417 235
418 235
419 235
420 235
421 235
422 235
423 235
424 235
425 235
426 235
427 235
428 235
429 235
430 235
431 235
432 235
433 235
434 235
435 235
436 235
437 235
438 235
439 235
440 235
441 235
442 235
443 235
444 235
445 235
446 235
447 235
448 235
449 235
450 235
451 235
452 235
453 235
454 235
455 235
456 235
457 235
458 235
459 235
460 235
461 235
462 235
463 235
464 235
465 235
466 235
467 235
468 235
469 235
470 235
471 235
472 235
473 235
474 235
475 235
476 235
477 235
478 235
479 235
480 235
481 235
482 235
483 235
484 235
485 235
486 235
487 235
488 235
489 235
490 235
491 235
492 235
493 235
494 235
495 235
496 235
497 235
498 235
499 235
500 235
501 235
502 235
503 235
504 235
505 235
506 235
507 235
508 235
509 235
510 235
511 235
512 235
513 235
514 235
515 235
516 235
517 235
518 235
519 235
520 235
521 235
522 235
523 235
524 235
525 235
526 235
527 235
528 235
529 235
373 236
374 236
375 236
376 236
377 236
378 236
379 236
380 236
381 236
382 236
383 236
384 236
385 236
386 236
387 236
388 236
389 236
390 236
391 236
392 236
393 236
394 236
395 236
396 236
397 236
398 236
399 236
400 236
401 236
402 236
403 236
404 236
405 236
406 236
407 236
408 236
409 236
410 236
411 236
412 236
413 236
414 236
415 236
416 236
417 236
418 236
419 236
420 236
421 236
422 236
423 236
424 236
425 236
426 236
427 236
428 236
429 236
430 236
431 236
432 236
433 236
434 236
435 236
436 236
437 236
438 236
439 236
440 236
441 236
442 236
443 236
444 236
445 236
446 236
447 236
448 236
449 236
450 236
451 236
452 236
453 236
454 236
455 236
456 236
457 236
458 236
459 236
460 236
461 236
462 236
463 236
464 236
465 236
466 236
467 236
468 236
469 236
470 236
471 236
472 236
473 236
474 236
475 236
476 236
477 236
478 236
479 236
480 236
481 236
482 236
483 236
484 236
485 236
486 236
487 236
488 236
489 236
490 236
491 236
492 236
493 236
494 236
495 236
496 236
497 236
498 236
499 236
500 236
501 236
502 236
503 236
504 236
505 236
506 236
507 236
508 236
509 236
510 236
511 236
512 236
513 236
514 236
515 236
516 236
517 236
518 236
519 236
520 236
521 236
522 236
523 236
524 236
525 236
526 236
527 236
528 236
529 236
373 237
374 237
375 237
376 237
377 237
378 237
379 237
380 237
381 237
382 237
383 237
384 237
385 237
386 237
387 237
388 237
389 237
390 237
391 237
392 237
393 237
394 237
395 237
396 237
397 237
398 237
399 237
400 237
401 237
402 237
403 237
404 237
405 237
406 237
407 237
408 237
409 237
410 237
411 237
412 237
413 237
414 237
415 237
416 237
417 237
418 237
419 237
420 237
421 237
422 237
423 237
424 237
425 237
426 237
427 237
428 237
429 237
430 237
431 237
432 237
433 237
434 237
435 237
436 237
437 237
438 237
439 237
440 237
441 237
442 237
443 237
444 237
445 237
446 237
447 237
448 237
449 237
450 237
451 237
452 237
453 237
454 237
455 237
456 237
457 237
458 237
459 237
460 237
461 237
462 237
463 237
464 237
465 237
466 237
467 237
468 237
469 237
470 237
471 237
472 237
473 237
474 237
475 237
476 237
477 237
478 237
479 237
480 237
481 237
482 237
483 237
484 237
485 237
486 237
487 237
488 237
489 237
490 237
491 237
492 237
493 237
494 237
495 237
496 237
497 237
498 237
499 237
500 237
501 237
502 237
503 237
504 237
505 237
506 237
507 237
508 237
509 237
510 237
511 237
512 237
513 237
514 237
515 237
516 237
517 237
518 237
519 237
520 237
521 237
522 237
523 237
524 237
525 237
526 237
527 237
528 237
529 237
373 238
374 238
375 238
376 238
377 238
378 238
379 238
380 238
381 238
382 238
383 238
384 238
385 238
386 238
387 238
388 238
389 238
390 238
391 238
392 238
393 238
394 238
395 238
396 238
397 238
398 238
399 238
400 238
401 238
402 238
403 238
404 238
405 238
406 238
407 238
408 238
409 238
410 238
411 238
412 238
413 238
414 238
415 238
416 238
417 238
418 238
419 238
420 238
421 238
422 238
423 238
424 238
425 238
426 238
427 238
428 238
429 238
430 238
431 238
432 238
433 238
434 238
435 238
436 238
437 238
438 238
439 238
440 238
441 238
442 238
443 238
444 238
445 238
446 238
447 238
448 238
449 238
450 238
451 238
452 238
453 238
454 238
455 238
456 238
457 238
458 238
459 238
460 238
461 238
462 238
463 238
464 238
465 238
466 238
467 238
468 238
469 238
470 238
471 238
472 238
473 238
474 238
475 238
476 238
477 238
478 238
479 238
480 238
481 238
482 238
483 238
484 238
485 238
486 238
487 238
488 238
489 238
490 238
491 238
492 238
493 238
494 238
495 238
496 238
497 238
498 238
499 238
500 238
501 238
502 238
503 238
504 238
505 238
506 238
507 238
508 238
509 238
510 238
511 238
512 238
513 238
514 238
515 238
516 238
517 238
518 238
519 238
520 238
521 238
522 238
523 238
524 238
525 238
526 238
527 238
528 238
529 238
373 239
374 239
375 239
376 239
377 239
378 239
379 239
380 239
381 239
382 239
383 239
384 239
385 239
386 239
387 239
388 239
389 239
390 239
391 239
392 239
393 239
394 239
395 239
396 239
397 239
398 239
399 239
400 239
401 239
402 239
403 239
404 239
405 239
406 239
407 239
408 239
409 239
410 239
411 239
412 239
413 239
414 239
415 239
416 239
417 239
418 239
419 239
420 239
421 239
422 239
423 239
424 239
425 239
426 239
427 239
428 239
429 239
430 239
431 239
432 239
433 239
434 239
435 239
436 239
437 239
438 239
439 239
440 239
441 239
442 239
443 239
444 239
445 239
446 239
447 239
448 239
449 239
450 239
451 239
452 239
453 239
454 239
455 239
456 239
457 239
458 239
459 239
460 239
461 239
462 239
463 239
464 239
465 239
466 239
467 239
468 239
469 239
470 239
471 239
472 239
473 239
474 239
475 239
476 239
477 239
478 239
479 239
480 239
481 239
482 239
483 239
484 239
485 239
486 239
487 239
488 239
489 239
490 239
491 239
492 239
493 239
494 239
495 239
496 239
497 239
498 239
499 239
500 239
501 239
502 239
503 239
504 239
505 239
506 239
507 239
508 239
509 239
510 239
511 239
512 239
513 239
514 239
515 239
516 239
517 239
518 239
519 239
520 239
521 239
522 239
523 239
524 239
525 239
526 239
527 239
528 239
529 239
373 240
374 240
375 240
376 240
377 240
378 240
379 240
380 240
381 240
382 240
383 240
384 240
385 240
386 240
387 240
388 240
389 240
390 240
391 240
392 240
393 240
394 240
395 240
396 240
397 240
398 240
399 240
400 240
401 240
402 240
403 240
404 240
405 240
406 240
407 240
408 240
409 240
410 240
411 240
412 240
413 240
414 240
415 240
416 240
417 240
418 240
419 240
420 240
421 240
422 240
423 240
424 240
425 240
426 240
427 240
428 240
429 240
430 240
431 240
432 240
433 240
434 240
435 240
436 240
437 240
438 240
439 240
440 240
441 240
442 240
443 240
444 240
445 240
446 240
447 240
448 240
449 240
450 240
451 240
452 240
453 240
454 240
455 240
456 240
457 240
458 240
459 240
460 240
461 240
462 240
463 240
464 240
465 240
466 240
467 240
468 240
469 240
470 240
471 240
472 240
473 240
474 240
475 240
476 240
477 240
478 240
479 240
480 240
481 240
482 240
483 240
484 240
485 240
486 240
487 240
488 240
489 240
490 240
491 240
492 240
493 240
494 240
495 240
496 240
497 240
498 240
499 240
500 240
501 240
502 240
503 240
504 240
505 240
506 240
507 240
508 240
509 240
510 240
511 240
512 240
513 240
514 240
515 240
516 240
517 240
518 240
519 240
520 240
521 240
522 240
523 240
524 240
525 240
526 240
527 240
528 240
529 240
373 241
374 241
375 241
376 241
377 241
378 241
379 241
380 241
381 241
382 241
383 241
384 241
385 241
386 241
387 241
388 241
389 241
390 241
391 241
392 241
393 241
394 241
395 241
396 241
397 241
398 241
399 241
400 241
401 241
402 241
403 241
404 241
405 241
406 241
407 241
408 241
409 241
410 241
411 241
412 241
413 241
414 241
415 241
416 241
417 241
418 241
419 241
420 241
421 241
422 241
423 241
424 241
425 241
426 241
427 241
428 241
429 241
430 241
431 241
432 241
433 241
434 241
435 241
436 241
437 241
438 241
439 241
440 241
441 241
442 241
443 241
444 241
445 241
446 241
447 241
448 241
449 241
450 241
451 241
452 241
453 241
454 241
455 241
456 241
457 241
458 241
459 241
460 241
461 241
462 241
463 241
464 241
465 241
466 241
467 241
468 241
469 241
470 241
471 241
472 241
473 241
474 241
475 241
476 241
477 241
478 241
479 241
480 241
481 241
482 241
483 241
484 241
485 241
486 241
487 241
488 241
489 241
490 241
491 241
492 241
493 241
494 241
495 241
496 241
497 241
498 241
499 241
500 241
501 241
502 241
503 241
504 241
505 241
506 241
507 241
508 241
509 241
510 241
511 241
512 241
513 241
514 241
515 241
516 241
517 241
518 241
519 241
520 241
521 241
522 241
523 241
524 241
525 241
526 241
527 241
528 241
529 241
373 242
374 242
375 242
376 242
377 242
378 242
379 242
380 242
381 242
382 242
383 242
384 242
385 242
386 242
387 242
388 242
389 242
390 242
391 242
392 242
393 242
394 242
395 242
396 242
397 242
398 242
399 242
400 242
401 242
402 242
403 242
404 242
405 242
406 242
407 242
408 242
409 242
410 242
411 242
412 242
413 242
414 242
415 242
416 242
417 242
418 242
419 242
420 242
421 242
422 242
423 242
424 242
425 242
426 242
427 242
428 242
429 242
430 242
431 242
432 242
433 242
434 242
435 242
436 242
437 242
438 242
439 242
440 242
441 242
442 242
443 242
444 242
445 242
446 242
447 242
448 242
449 242
450 242
451 242
452 242
453 242
454 242
455 242
456 242
457 242
458 242
459 242
460 242
461 242
462 242
463 242
464 242
465 242
466 242
467 242
468 242
469 242
470 242
471 242
472 242
473 242
474 242
475 242
476 242
477 242
478 242
479 242
480 242
481 242
482 242
483 242
484 242
485 242
486 242
487 242
488 242
489 242
490 242
491 242
492 242
493 242
494 242
495 242
496 242
497 242
498 242
499 242
500 242
501 242
502 242
503 242
504 242
505 242
506 242
507 242
508 242
509 242
510 242
511 242
512 242
513 242
514 242
515 242
516 242
517 242
518 242
519 242
520 242
521 242
522 242
523 242
524 242
525 242
526 242
527 242
528 242
529 242
373 243
374 243
375 243
376 243
377 243
378 243
379 243
380 243
381 243
382 243
383 243
384 243
385 243
386 243
387 243
388 243
389 243
390 243
391 243
392 243
393 243
394 243
395 243
396 243
397 243
398 243
399 243
400 243
401 243
402 243
403 243
404 243
405 243
406 243
407 243
408 243
409 243
410 243
411 243
412 243
413 243
414 243
415 243
416 243
417 243
418 243
419 243
420 243
421 243
422 243
423 243
424 243
425 243
426 243
427 243
428 243
429 243
430 243
431 243
432 243
433 243
434 243
435 243
436 243
437 243
438 243
439 243
440 243
441 243
442 243
443 243
444 243
445 243
446 243
447 243
448 243
449 243
450 243
451 243
452 243
453 243
454 243
455 243
456 243
457 243
458 243
459 243
460 243
461 243
462 243
463 243
464 243
465 243
466 243
467 243
468 243
469 243
470 243
471 243
472 243
473 243
474 243
475 243
476 243
477 243
478 243
479 243
480 243
481 243
482 243
483 243
484 243
485 243
486 243
487 243
488 243
489 243
490 243
491 243
492 243
493 243
494 243
495 243
496 243
497 243
498 243
499 243
500 243
501 243
502 243
503 243
504 243
505 243
506 243
507 243
508 243
509 243
510 243
511 243
512 243
513 243
514 243
515 243
516 243
517 243
518 243
519 243
520 243
521 243
522 243
523 243
524 243
525 243
526 243
527 243
528 243
529 243
373 244
374 244
375 244
376 244
377 244
378 244
379 244
380 244
381 244
382 244
383 244
384 244
385 244
386 244
387 244
388 244
389 244
390 244
391 244
392 244
393 244
394 244
395 244
396 244
397 244
398 244
399 244
400 244
401 244
402 244
403 244
404 244
405 244
406 244
407 244
408 244
409 244
410 244
411 244
412 244
413 244
414 244
415 244
416 244
417 244
418 244
419 244
420 244
421 244
422 244
423 244
424 244
425 244
426 244
427 244
428 244
429 244
430 244
431 244
432 244
433 244
434 244
435 244
436 244
437 244
438 244
439 244
440 244
441 244
442 244
443 244
444 244
445 244
446 244
447 244
448 244
449 244
450 244
451 244
452 244
453 244
454 244
455 244
456 244
457 244
458 244
459 244
460 244
461 244
462 244
463 244
464 244
465 244
466 244
467 244
468 244
469 244
470 244
471 244
472 244
473 244
474 244
475 244
476 244
477 244
478 244
479 244
480 244
481 244
482 244
483 244
484 244
485 244
486 244
487 244
488 244
489 244
490 244
491 244
492 244
493 244
494 244
495 244
496 244
497 244
498 244
499 244
500 244
501 244
502 244
503 244
504 244
505 244
506 244
507 244
508 244
509 244
510 244
511 244
512 244
513 244
514 244
515 244
516 244
517 244
518 244
519 244
520 244
521 244
522 244
523 244
524 244
525 244
526 244
527 244
528 244
529 244
373 245
374 245
375 245
376 245
377 245
378 245
379 245
380 245
381 245
382 245
383 245
384 245
385 245
386 245
387 245
388 245
389 245
390 245
391 245
392 245
393 245
394 245
395 245
396 245
397 245
398 245
399 245
400 245
401 245
402 245
403 245
404 245
405 245
406 245
407 245
408 245
409 245
410 245
411 245
412 245
413 245
414 245
415 245
416 245
417 245
418 245
419 245
420 245
421 245
422 245
423 245
424 245
425 245
426 245
427 245
428 245
429 245
430 245
431 245
432 245
433 245
434 245
435 245
436 245
437 245
438 245
439 245
440 245
441 245
442 245
443 245
444 245
445 245
446 245
447 245
448 245
449 245
450 245
451 245
452 245
453 245
454 245
455 245
456 245
457 245
458 245
459 245
460 245
461 245
462 245
463 245
464 245
465 245
466 245
467 245
468 245
469 245
470 245
471 245
472 245
473 245
474 245
475 245
476 245
477 245
478 245
479 245
480 245
481 245
482 245
483 245
484 245
485 245
486 245
487 245
488 245
489 245
490 245
491 245
492 245
493 245
494 245
495 245
496 245
497 245
498 245
499 245
500 245
501 245
502 245
503 245
504 245
505 245
506 245
507 245
508 245
509 245
510 245
511 245
512 245
513 245
514 245
515 245
516 245
517 245
518 245
519 245
520 245
521 245
522 245
523 245
524 245
525 245
526 245
527 245
528 245
529 245
373 246
374 246
375 246
376 246
377 246
378 246
379 246
380 246
381 246
382 246
383 246
384 246
385 246
386 246
387 246
388 246
389 246
390 246
391 246
392 246
393 246
394 246
395 246
396 246
397 246
398 246
399 246
400 246
401 246
402 246
403 246
404 246
405 246
406 246
407 246
408 246
409 246
410 246
411 246
412 246
413 246
414 246
415 246
416 246
417 246
418 246
419 246
420 246
421 246
422 246
423 246
424 246
425 246
426 246
427 246
428 246
429 246
430 246
431 246
432 246
433 246
434 246
435 246
436 246
437 246
438 246
439 246
440 246
441 246
442 246
443 246
444 246
445 246
446 246
447 246
448 246
449 246
450 246
451 246
452 246
453 246
454 246
455 246
456 246
457 246
458 246
459 246
460 246
461 246
462 246
463 246
464 246
465 246
466 246
467 246
468 246
469 246
470 246
471 246
472 246
473 246
474 246
475 246
476 246
477 246
478 246
479 246
480 246
481 246
482 246
483 246
484 246
485 246
486 246
487 246
488 246
489 246
490 246
491 246
492 246
493 246
494 246
495 246
496 246
497 246
498 246
499 246
500 246
501 246
502 246
503 246
504 246
505 246
506 246
507 246
508 246
509 246
510 246
511 246
512 246
513 246
514 246
515 246
516 246
517 246
518 246
519 246
520 246
521 246
522 246
523 246
524 246
525 246
526 246
527 246
528 246
529 246
373 247
374 247
375 247
376 247
377 247
378 247
379 247
380 247
381 247
382 247
383 247
384 247
385 247
386 247
387 247
388 247
389 247
390 247
391 247
392 247
393 247
394 247
395 247
396 247
397 247
398 247
399 247
400 247
401 247
402 247
403 247
404 247
405 247
406 247
407 247
408 247
409 247
410 247
411 247
412 247
413 247
414 247
415 247
416 247
417 247
418 247
419 247
420 247
421 247
422 247
423 247
424 247
425 247
426 247
427 247
428 247
429 247
430 247
431 247
432 247
433 247
434 247
435 247
436 247
437 247
438 247
439 247
440 247
441 247
442 247
443 247
444 247
445 247
446 247
447 247
448 247
449 247
450 247
451 247
452 247
453 247
454 247
455 247
456 247
457 247
458 247
459 247
460 247
461 247
462 247
463 247
464 247
465 247
466 247
467 247
468 247
469 247
470 247
471 247
472 247
473 247
474 247
475 247
476 247
477 247
478 247
479 247
480 247
481 247
482 247
483 247
484 247
485 247
486 247
487 247
488 247
489 247
490 247
491 247
492 247
493 247
494 247
495 247
496 247
497 247
498 247
499 247
500 247
501 247
502 247
503 247
504 247
505 247
506 247
507 247
508 247
509 247
510 247
511 247
512 247
513 247
514 247
515 247
516 247
517 247
518 247
519 247
520 247
521 247
522 247
523 247
524 247
525 247
526 247
527 247
528 247
529 247
373 248
374 248
375 248
376 248
377 248
378 248
379 248
380 248
381 248
382 248
383 248
384 248
385 248
386 248
387 248
388 248
389 248
390 248
391 248
392 248
393 248
394 248
395 248
396 248
397 248
398 248
399 248
400 248
401 248
402 248
403 248
404 248
405 248
406 248
407 248
408 248
409 248
410 248
411 248
412 248
413 248
414 248
415 248
416 248
417 248
418 248
419 248
420 248
421 248
422 248
423 248
424 248
425 248
426 248
427 248
428 248
429 248
430 248
431 248
432 248
433 248
434 248
435 248
436 248
437 248
438 248
439 248
440 248
441 248
442 248
443 248
444 248
445 248
446 248
447 248
448 248
449 248
450 248
451 248
452 248
453 248
454 248
455 248
456 248
457 248
458 248
459 248
460 248
461 248
462 248
463 248
464 248
465 248
466 248
467 248
468 248
469 248
470 248
471 248
472 248
473 248
474 248
475 248
476 248
477 248
478 248
479 248
480 248
481 248
482 248
483 248
484 248
485 248
486 248
487 248
488 248
489 248
490 248
491 248
492 248
493 248
494 248
495 248
496 248
497 248
498 248
499 248
500 248
501 248
502 248
503 248
504 248
505 248
506 248
507 248
508 248
509 248
510 248
511 248
512 248
513 248
514 248
515 248
516 248
517 248
518 248
519 248
520 248
521 248
522 248
523 248
524 248
525 248
526 248
527 248
528 248
529 248
373 249
374 249
375 249
376 249
377 249
378 249
379 249
380 249
381 249
382 249
383 249
384 249
385 249
386 249
387 249
388 249
389 249
390 249
391 249
392 249
393 249
394 249
395 249
396 249
397 249
398 249
399 249
400 249
401 249
402 249
403 249
404 249
405 249
406 249
407 249
408 249
409 249
410 249
411 249
412 249
413 249
414 249
415 249
416 249
417 249
418 249
419 249
420 249
421 249
422 249
423 249
424 249
425 249
426 249
427 249
428 249
429 249
430 249
431 249
432 249
433 249
434 249
435 249
436 249
437 249
438 249
439 249
440 249
441 249
442 249
443 249
444 249
445 249
446 249
447 249
448 249
449 249
450 249
451 249
452 249
453 249
454 249
455 249
456 249
457 249
458 249
459 249
460 249
461 249
462 249
463 249
464 249
465 249
466 249
467 249
468 249
469 249
470 249
471 249
472 249
473 249
474 249
475 249
476 249
477 249
478 249
479 249
480 249
481 249
482 249
483 249
484 249
485 249
486 249
487 249
488 249
489 249
490 249
491 249
492 249
493 249
494 249
495 249
496 249
497 249
498 249
499 249
500 249
501 249
502 249
503 249
504 249
505 249
506 249
507 249
508 249
509 249
510 249
511 249
512 249
513 249
514 249
515 249
516 249
517 249
518 249
519 249
520 249
521 249
522 249
523 249
524 249
525 249
526 249
527 249
528 249
529 249
373 250
374 250
375 250
376 250
377 250
378 250
379 250
380 250
381 250
382 250
383 250
384 250
385 250
386 250
387 250
388 250
389 250
390 250
391 250
392 250
393 250
394 250
395 250
396 250
397 250
398 250
399 250
400 250
401 250
402 250
403 250
404 250
405 250
406 250
407 250
408 250
409 250
410 250
411 250
412 250
413 250
414 250
415 250
416 250
417 250
418 250
419 250
420 250
421 250
422 250
423 250
424 250
425 250
426 250
427 250
428 250
429 250
430 250
431 250
432 250
433 250
434 250
435 250
436 250
437 250
438 250
439 250
440 250
441 250
442 250
443 250
444 250
445 250
446 250
447 250
448 250
449 250
450 250
451 250
452 250
453 250
454 250
455 250
456 250
457 250
458 250
459 250
460 250
461 250
462 250
463 250
464 250
465 250
466 250
467 250
468 250
469 250
470 250
471 250
472 250
473 250
474 250
475 250
476 250
477 250
478 250
479 250
480 250
481 250
482 250
483 250
484 250
485 250
486 250
487 250
488 250
489 250
490 250
491 250
492 250
493 250
494 250
495 250
496 250
497 250
498 250
499 250
500 250
501 250
502 250
503 250
504 250
505 250
506 250
507 250
508 250
509 250
510 250
511 250
512 250
513 250
514 250
515 250
516 250
517 250
518 250
519 250
520 250
521 250
522 250
523 250
524 250
525 250
526 250
527 250
528 250
529 250
373 251
374 251
375 251
376 251
377 251
378 251
379 251
380 251
381 251
382 251
383 251
384 251
385 251
386 251
387 251
388 251
389 251
390 251
391 251
392 251
393 251
394 251
395 251
396 251
397 251
398 251
399 251
400 251
401 251
402 251
403 251
404 251
405 251
406 251
407 251
408 251
409 251
410 251
411 251
412 251
413 251
414 251
415 251
416 251
417 251
418 251
419 251
420 251
421 251
422 251
423 251
424 251
425 251
426 251
427 251
428 251
429 251
430 251
431 251
432 251
433 251
434 251
435 251
436 251
437 251
438 251
439 251
440 251
441 251
442 251
443 251
444 251
445 251
446 251
447 251
448 251
449 251
450 251
451 251
452 251
453 251
454 251
455 251
456 251
457 251
458 251
459 251
460 251
461 251
462 251
463 251
464 251
465 251
466 251
467 251
468 251
469 251
470 251
471 251
472 251
473 251
474 251
475 251
476 251
477 251
478 251
479 251
480 251
481 251
482 251
483 251
484 251
485 251
486 251
487 251
488 251
489 251
490 251
491 251
492 251
493 251
494 251
495 251
496 251
497 251
498 251
499 251
500 251
501 251
502 251
503 251
504 251
505 251
506 251
507 251
508 251
509 251
510 251
511 251
512 251
513 251
514 251
515 251
516 251
517 251
518 251
519 251
520 251
521 251
522 251
523 251
524 251
525 251
526 251
527 251
528 251
529 251
373 252
374 252
375 252
376 252
377 252
378 252
379 252
380 252
381 252
382 252
383 252
384 252
385 252
386 252
387 252
388 252
389 252
390 252
391 252
392 252
393 252
394 252
395 252
396 252
397 252
398 252
399 252
400 252
401 252
402 252
403 252
404 252
405 252
406 252
407 252
408 252
409 252
410 252
411 252
412 252
413 252
414 252
415 252
416 252
417 252
418 252
419 252
420 252
421 252
422 252
423 252
424 252
425 252
426 252
427 252
428 252
429 252
430 252
431 252
432 252
433 252
434 252
435 252
436 252
437 252
438 252
439 252
440 252
441 252
442 252
443 252
444 252
445 252
446 252
447 252
448 252
449 252
450 252
451 252
452 252
453 252
454 252
455 252
456 252
457 252
458 252
459 252
460 252
461 252
462 252
463 252
464 252
465 252
466 252
467 252
468 252
469 252
470 252
471 252
472 252
473 252
474 252
475 252
476 252
477 252
478 252
479 252
480 252
481 252
482 252
483 252
484 252
485 252
486 252
487 252
488 252
489 252
490 252
491 252
492 252
493 252
494 252
495 252
496 252
497 252
498 252
499 252
500 252
501 252
502 252
503 252
504 252
505 252
506 252
507 252
508 252
509 252
510 252
511 252
512 252
513 252
514 252
515 252
516 252
517 252
518 252
519 252
520 252
521 252
522 252
523 252
524 252
525 252
526 252
527 252
528 252
529 252
373 253
374 253
375 253
376 253
377 253
378 253
379 253
380 253
381 253
382 253
383 253
384 253
385 253
386 253
387 253
388 253
389 253
390 253
391 253
392 253
393 253
394 253
395 253
396 253
397 253
398 253
399 253
400 253
401 253
402 253
403 253
404 253
405 253
406 253
407 253
408 253
409 253
410 253
411 253
412 253
413 253
414 253
415 253
416 253
417 253
418 253
419 253
420 253
421 253
422 253
423 253
424 253
425 253
426 253
427 253
428 253
429 253
430 253
431 253
432 253
433 253
434 253
435 253
436 253
437 253
438 253
439 253
440 253
441 253
442 253
443 253
444 253
445 253
446 253
447 253
448 253
449 253
450 253
451 253
452 253
453 253
454 253
455 253
456 253
457 253
458 253
459 253
460 253
461 253
462 253
463 253
464 253
465 253
466 253
467 253
468 253
469 253
470 253
471 253
472 253
473 253
474 253
475 253
476 253
477 253
478 253
479 253
480 253
481 253
482 253
483 253
484 253
485 253
486 253
487 253
488 253
489 253
490 253
491 253
492 253
493 253
494 253
495 253
496 253
497 253
498 253
499 253
500 253
501 253
502 253
503 253
504 253
505 253
506 253
507 253
508 253
509 253
510 253
511 253
512 253
513 253
514 253
515 253
516 253
517 253
518 253
519 253
520 253
521 253
522 253
523 253
524 253
525 253
526 253
527 253
528 253
529 253
373 254
374 254
375 254
376 254
377 254
378 254
379 254
380 254
381 254
382 254
383 254
384 254
385 254
386 254
387 254
388 254
389 254
390 254
391 254
392 254
393 254
394 254
395 254
396 254
397 254
398 254
399 254
400 254
401 254
402 254
403 254
404 254
405 254
406 254
407 254
408 254
409 254
410 254
411 254
412 254
413 254
414 254
415 254
416 254
417 254
418 254
419 254
420 254
421 254
422 254
423 254
424 254
425 254
426 254
427 254
428 254
429 254
430 254
431 254
432 254
433 254
434 254
435 254
436 254
437 254
438 254
439 254
440 254
441 254
442 254
443 254
444 254
445 254
446 254
447 254
448 254
449 254
450 254
451 254
452 254
453 254
454 254
455 254
456 254
457 254
458 254
459 254
460 254
461 254
462 254
463 254
464 254
465 254
466 254
467 254
468 254
469 254
470 254
471 254
472 254
473 254
474 254
475 254
476 254
477 254
478 254
479 254
480 254
481 254
482 254
483 254
484 254
485 254
486 254
487 254
488 254
489 254
490 254
491 254
492 254
493 254
494 254
495 254
496 254
497 254
498 254
499 254
500 254
501 254
502 254
503 254
504 254
505 254
506 254
507 254
508 254
509 254
510 254
511 254
512 254
513 254
514 254
515 254
516 254
517 254
518 254
519 254
520 254
521 254
522 254
523 254
524 254
525 254
526 254
527 254
528 254
529 254
373 255
374 255
375 255
376 255
377 255
378 255
379 255
380 255
381 255
382 255
383 255
384 255
385 255
386 255
387 255
388 255
389 255
390 255
391 255
392 255
393 255
394 255
395 255
396 255
397 255
398 255
399 255
400 255
401 255
402 255
403 255
404 255
405 255
406 255
407 255
408 255
409 255
410 255
411 255
412 255
413 255
414 255
415 255
416 255
417 255
418 255
419 255
420 255
421 255
422 255
423 255
424 255
425 255
426 255
427 255
428 255
429 255
430 255
431 255
432 255
433 255
434 255
435 255
436 255
437 255
438 255
439 255
440 255
441 255
442 255
443 255
444 255
445 255
446 255
447 255
448 255
449 255
450 255
451 255
452 255
453 255
454 255
455 255
456 255
457 255
458 255
459 255
460 255
461 255
462 255
463 255
464 255
465 255
466 255
467 255
468 255
469 255
470 255
471 255
472 255
473 255
474 255
475 255
476 255
477 255
478 255
479 255
480 255
481 255
482 255
483 255
484 255
485 255
486 255
487 255
488 255
489 255
490 255
491 255
492 255
493 255
494 255
495 255
496 255
497 255
498 255
499 255
500 255
501 255
502 255
503 255
504 255
505 255
506 255
507 255
508 255
509 255
510 255
511 255
512 255
513 255
514 255
515 255
516 255
517 255
518 255
519 255
520 255
521 255
522 255
523 255
524 255
525 255
526 255
527 255
528 255
529 255
373 256
374 256
375 256
376 256
377 256
378 256
379 256
380 256
381 256
382 256
383 256
384 256
385 256
386 256
387 256
388 256
389 256
390 256
391 256
392 256
393 256
394 256
395 256
396 256
397 256
398 256
399 256
400 256
401 256
402 256
403 256
404 256
405 256
406 256
407 256
408 256
409 256
410 256
411 256
412 256
413 256
414 256
415 256
416 256
417 256
418 256
419 256
420 256
421 256
422 256
423 256
424 256
425 256
426 256
427 256
428 256
429 256
430 256
431 256
432 256
433 256
434 256
435 256
436 256
437 256
438 256
439 256
440 256
441 256
442 256
443 256
444 256
445 256
446 256
447 256
448 256
449 256
450 256
451 256
452 256
453 256
454 256
455 256
456 256
457 256
458 256
459 256
460 256
461 256
462 256
463 256
464 256
465 256
466 256
467 256
468 256
469 256
470 256
471 256
472 256
473 256
474 256
475 256
476 256
477 256
478 256
479 256
480 256
481 256
482 256
483 256
484 256
485 256
486 256
487 256
488 256
489 256
490 256
491 256
492 256
493 256
494 256
495 256
496 256
497 256
498 256
499 256
500 256
501 256
502 256
503 256
504 256
505 256
506 256
507 256
508 256
509 256
510 256
511 256
512 256
513 256
514 256
515 256
516 256
517 256
518 256
519 256
520 256
521 256
522 256
523 256
524 256
525 256
526 256
527 256
528 256
529 256
373 257
374 257
375 257
376 257
377 257
378 257
379 257
380 257
381 257
382 257
383 257
384 257
385 257
386 257
387 257
388 257
389 257
390 257
391 257
392 257
393 257
394 257
395 257
396 257
397 257
398 257
399 257
400 257
401 257
402 257
403 257
404 257
405 257
406 257
407 257
408 257
409 257
410 257
411 257
412 257
413 257
414 257
415 257
416 257
417 257
418 257
419 257
420 257
421 257
422 257
423 257
424 257
425 257
426 257
427 257
428 257
429 257
430 257
431 257
432 257
433 257
434 257
435 257
436 257
437 257
438 257
439 257
440 257
441 257
442 257
443 257
444 257
445 257
446 257
447 257
448 257
449 257
450 257
451 257
452 257
453 257
454 257
455 257
456 257
457 257
458 257
459 257
460 257
461 257
462 257
463 257
464 257
465 257
466 257
467 257
468 257
469 257
470 257
471 257
472 257
473 257
474 257
475 257
476 257
477 257
478 257
479 257
480 257
481 257
482 257
483 257
484 257
485 257
486 257
487 257
488 257
489 257
490 257
491 257
492 257
493 257
494 257
495 257
496 257
497 257
498 257
499 257
500 257
501 257
502 257
503 257
504 257
505 257
506 257
507 257
508 257
509 257
510 257
511 257
512 257
513 257
514 257
515 257
516 257
517 257
518 257
519 257
520 257
521 257
522 257
523 257
524 257
525 257
526 257
527 257
528 257
529 257
373 258
374 258
375 258
376 258
377 258
378 258
379 258
380 258
381 258
382 258
383 258
384 258
385 258
386 258
387 258
388 258
389 258
390 258
391 258
392 258
393 258
394 258
395 258
396 258
397 258
398 258
399 258
400 258
401 258
402 258
403 258
404 258
405 258
406 258
407 258
408 258
409 258
410 258
411 258
412 258
413 258
414 258
415 258
416 258
417 258
418 258
419 258
420 258
421 258
422 258
423 258
424 258
425 258
426 258
427 258
428 258
429 258
430 258
431 258
432 258
433 258
434 258
435 258
436 258
437 258
438 258
439 258
440 258
441 258
442 258
443 258
444 258
445 258
446 258
447 258
448 258
449 258
450 258
451 258
452 258
453 258
454 258
455 258
456 258
457 258
458 258
459 258
460 258
461 258
462 258
463 258
464 258
465 258
466 258
467 258
468 258
469 258
470 258
471 258
472 258
473 258
474 258
475 258
476 258
477 258
478 258
479 258
480 258
481 258
482 258
483 258
484 258
485 258
486 258
487 258
488 258
489 258
490 258
491 258
492 258
493 258
494 258
495 258
496 258
497 258
498 258
499 258
500 258
501 258
502 258
503 258
504 258
505 258
506 258
507 258
508 258
509 258
510 258
511 258
512 258
513 258
514 258
515 258
516 258
517 258
518 258
519 258
520 258
521 258
522 258
523 258
524 258
525 258
526 258
527 258
528 258
529 258
373 259
374 259
375 259
376 259
377 259
378 259
379 259
380 259
381 259
382 259
383 259
384 259
385 259
386 259
387 259
388 259
389 259
390 259
391 259
392 259
393 259
394 259
395 259
396 259
397 259
398 259
399 259
400 259
401 259
402 259
403 259
404 259
405 259
406 259
407 259
408 259
409 259
410 259
411 259
412 259
413 259
414 259
415 259
416 259
417 259
418 259
419 259
420 259
421 259
422 259
423 259
424 259
425 259
426 259
427 259
428 259
429 259
430 259
431 259
432 259
433 259
434 259
435 259
436 259
437 259
438 259
439 259
440 259
441 259
442 259
443 259
444 259
445 259
446 259
447 259
448 259
449 259
450 259
451 259
452 259
453 259
454 259
455 259
456 259
457 259
458 259
459 259
460 259
461 259
462 259
463 259
464 259
465 259
466 259
467 259
468 259
469 259
470 259
471 259
472 259
473 259
474 259
475 259
476 259
477 259
478 259
479 259
480 259
481 259
482 259
483 259
484 259
485 259
486 259
487 259
488 259
489 259
490 259
491 259
492 259
493 259
494 259
495 259
496 259
497 259
498 259
499 259
500 259
501 259
502 259
503 259
504 259
505 259
506 259
507 259
508 259
509 259
510 259
511 259
512 259
513 259
514 259
515 259
516 259
517 259
518 259
519 259
520 259
521 259
522 259
523 259
524 259
525 259
526 259
527 259
528 259
529 259
373 260
374 260
375 260
376 260
377 260
378 260
379 260
380 260
381 260
382 260
383 260
384 260
385 260
386 260
387 260
388 260
389 260
390 260
391 260
392 260
393 260
394 260
395 260
396 260
397 260
398 260
399 260
400 260
401 260
402 260
403 260
404 260
405 260
406 260
407 260
408 260
409 260
410 260
411 260
412 260
413 260
414 260
415 260
416 260
417 260
418 260
419 260
420 260
421 260
422 260
423 260
424 260
425 260
426 260
427 260
428 260
429 260
430 260
431 260
432 260
433 260
434 260
435 260
436 260
437 260
438 260
439 260
440 260
441 260
442 260
443 260
444 260
445 260
446 260
447 260
448 260
449 260
450 260
451 260
452 260
453 260
454 260
455 260
456 260
457 260
458 260
459 260
460 260
461 260
462 260
463 260
464 260
465 260
466 260
467 260
468 260
469 260
470 260
471 260
472 260
473 260
474 260
475 260
476 260
477 260
478 260
479 260
480 260
481 260
482 260
483 260
484 260
485 260
486 260
487 260
488 260
489 260
490 260
491 260
492 260
493 260
494 260
495 260
496 260
497 260
498 260
499 260
500 260
501 260
502 260
503 260
504 260
505 260
506 260
507 260
508 260
509 260
510 260
511 260
512 260
513 260
514 260
515 260
516 260
517 260
518 260
519 260
520 260
521 260
522 260
523 260
524 260
525 260
526 260
527 260
528 260
529 260
373 261
374 261
375 261
376 261
377 261
378 261
379 261
380 261
381 261
382 261
383 261
384 261
385 261
386 261
387 261
388 261
389 261
390 261
391 261
392 261
393 261
394 261
395 261
396 261
397 261
398 261
399 261
400 261
401 261
402 261
403 261
404 261
405 261
406 261
407 261
408 261
409 261
410 261
411 261
412 261
413 261
414 261
415 261
416 261
417 261
418 261
419 261
420 261
421 261
422 261
423 261
424 261
425 261
426 261
427 261
428 261
429 261
430 261
431 261
432 261
433 261
434 261
435 261
436 261
437 261
438 261
439 261
440 261
441 261
442 261
443 261
444 261
445 261
446 261
447 261
448 261
449 261
450 261
451 261
452 261
453 261
454 261
455 261
456 261
457 261
458 261
459 261
460 261
461 261
462 261
463 261
464 261
465 261
466 261
467 261
468 261
469 261
470 261
471 261
472 261
473 261
474 261
475 261
476 261
477 261
478 261
479 261
480 261
481 261
482 261
483 261
484 261
485 261
486 261
487 261
488 261
489 261
490 261
491 261
492 261
493 261
494 261
495 261
496 261
497 261
498 261
499 261
500 261
501 261
502 261
503 261
504 261
505 261
506 261
507 261
508 261
509 261
510 261
511 261
512 261
513 261
514 261
515 261
516 261
517 261
518 261
519 261
520 261
521 261
522 261
523 261
524 261
525 261
526 261
527 261
528 261
529 261
373 262
374 262
375 262
376 262
377 262
378 262
379 262
380 262
381 262
382 262
383 262
384 262
385 262
386 262
387 262
388 262
389 262
390 262
391 262
392 262
393 262
394 262
395 262
396 262
397 262
398 262
399 262
400 262
401 262
402 262
403 262
404 262
405 262
406 262
407 262
408 262
409 262
410 262
411 262
412 262
413 262
414 262
415 262
416 262
417 262
418 262
419 262
420 262
421 262
422 262
423 262
424 262
425 262
426 262
427 262
428 262
429 262
430 262
431 262
432 262
433 262
434 262
435 262
436 262
437 262
438 262
439 262
440 262
441 262
442 262
443 262
444 262
445 262
446 262
447 262
448 262
449 262
450 262
451 262
452 262
453 262
454 262
455 262
456 262
457 262
458 262
459 262
460 262
461 262
462 262
463 262
464 262
465 262
466 262
467 262
468 262
469 262
470 262
471 262
472 262
473 262
474 262
475 262
476 262
477 262
478 262
479 262
480 262
481 262
482 262
483 262
484 262
485 262
486 262
487 262
488 262
489 262
490 262
491 262
492 262
493 262
494 262
495 262
496 262
497 262
498 262
499 262
500 262
501 262
502 262
503 262
504 262
505 262
506 262
507 262
508 262
509 262
510 262
511 262
512 262
513 262
514 262
515 262
516 262
517 262
518 262
519 262
520 262
521 262
522 262
523 262
524 262
525 262
526 262
527 262
528 262
529 262
373 263
374 263
375 263
376 263
377 263
378 263
379 263
380 263
381 263
382 263
383 263
384 263
385 263
386 263
387 263
388 263
389 263
390 263
391 263
392 263
393 263
394 263
395 263
396 263
397 263
398 263
399 263
400 263
401 263
402 263
403 263
404 263
405 263
406 263
407 263
408 263
409 263
410 263
411 263
412 263
413 263
414 263
415 263
416 263
417 263
418 263
419 263
420 263
421 263
422 263
423 263
424 263
425 263
426 263
427 263
428 263
429 263
430 263
431 263
432 263
433 263
434 263
435 263
436 263
437 263
438 263
439 263
440 263
441 263
442 263
443 263
444 263
445 263
446 263
447 263
448 263
449 263
450 263
451 263
452 263
453 263
454 263
455 263
456 263
457 263
458 263
459 263
460 263
461 263
462 263
463 263
464 263
465 263
466 263
467 263
468 263
469 263
470 263
471 263
472 263
473 263
474 263
475 263
476 263
477 263
478 263
479 263
480 263
481 263
482 263
483 263
484 263
485 263
486 263
487 263
488 263
489 263
490 263
491 263
492 263
493 263
494 263
495 263
496 263
497 263
498 263
499 263
500 263
501 263
502 263
503 263
504 263
505 263
506 263
507 263
508 263
509 263
510 263
511 263
512 263
513 263
514 263
515 263
516 263
517 263
518 263
519 263
520 263
521 263
522 263
523 263
524 263
525 263
526 263
527 263
528 263
529 263
373 264
374 264
375 264
376 264
377 264
378 264
379 264
380 264
381 264
382 264
383 264
384 264
385 264
386 264
387 264
388 264
389 264
390 264
391 264
392 264
393 264
394 264
395 264
396 264
397 264
398 264
399 264
400 264
401 264
402 264
403 264
404 264
405 264
406 264
407 264
408 264
409 264
410 264
411 264
412 264
413 264
414 264
415 264
416 264
417 264
418 264
419 264
420 264
421 264
422 264
423 264
424 264
425 264
426 264
427 264
428 264
429 264
430 264
431 264
432 264
433 264
434 264
435 264
436 264
437 264
438 264
439 264
440 264
441 264
442 264
443 264
444 264
445 264
446 264
447 264
448 264
449 264
450 264
451 264
452 264
453 264
454 264
455 264
456 264
457 264
458 264
459 264
460 264
461 264
462 264
463 264
464 264
465 264
466 264
467 264
468 264
469 264
470 264
471 264
472 264
473 264
474 264
475 264
476 264
477 264
478 264
479 264
480 264
481 264
482 264
483 264
484 264
485 264
486 264
487 264
488 264
489 264
490 264
491 264
492 264
493 264
494 264
495 264
496 264
497 264
498 264
499 264
500 264
501 264
502 264
503 264
504 264
505 264
506 264
507 264
508 264
509 264
510 264
511 264
512 264
513 264
514 264
515 264
516 264
517 264
518 264
519 264
520 264
521 264
522 264
523 264
524 264
525 264
526 264
527 264
528 264
529 264
373 265
374 265
375 265
376 265
377 265
378 265
379 265
380 265
381 265
382 265
383 265
384 265
385 265
386 265
387 265
388 265
389 265
390 265
391 265
392 265
393 265
394 265
395 265
396 265
397 265
398 265
399 265
400 265
401 265
402 265
403 265
404 265
405 265
406 265
407 265
408 265
409 265
410 265
411 265
412 265
413 265
414 265
415 265
416 265
417 265
418 265
419 265
420 265
421 265
422 265
423 265
424 265
425 265
426 265
427 265
428 265
429 265
430 265
431 265
432 265
433 265
434 265
435 265
436 265
437 265
438 265
439 265
440 265
441 265
442 265
443 265
444 265
445 265
446 265
447 265
448 265
449 265
450 265
451 265
452 265
453 265
454 265
455 265
456 265
457 265
458 265
459 265
460 265
461 265
462 265
463 265
464 265
465 265
466 265
467 265
468 265
469 265
470 265
471 265
472 265
473 265
474 265
475 265
476 265
477 265
478 265
479 265
480 265
481 265
482 265
483 265
484 265
485 265
486 265
487 265
488 265
489 265
490 265
491 265
492 265
493 265
494 265
495 265
496 265
497 265
498 265
499 265
500 265
501 265
502 265
503 265
504 265
505 265
506 265
507 265
508 265
509 265
510 265
511 265
512 265
513 265
514 265
515 265
516 265
517 265
518 265
519 265
520 265
521 265
522 265
523 265
524 265
525 265
526 265
527 265
528 265
529 265
373 266
374 266
375 266
376 266
377 266
378 266
379 266
380 266
381 266
382 266
383 266
384 266
385 266
386 266
387 266
388 266
389 266
390 266
391 266
392 266
393 266
394 266
395 266
396 266
397 266
398 266
399 266
400 266
401 266
402 266
403 266
404 266
405 266
406 266
407 266
408 266
409 266
410 266
411 266
412 266
413 266
414 266
415 266
416 266
417 266
418 266
419 266
420 266
421 266
422 266
423 266
424 266
425 266
426 266
427 266
428 266
429 266
430 266
431 266
432 266
433 266
434 266
435 266
436 266
437 266
438 266
439 266
440 266
441 266
442 266
443 266
444 266
445 266
446 266
447 266
448 266
449 266
450 266
451 266
452 266
453 266
454 266
455 266
456 266
457 266
458 266
459 266
460 266
461 266
462 266
463 266
464 266
465 266
466 266
467 266
468 266
469 266
470 266
471 266
472 266
473 266
474 266
475 266
476 266
477 266
478 266
479 266
480 266
481 266
482 266
483 266
484 266
485 266
486 266
487 266
488 266
489 266
490 266
491 266
492 266
493 266
494 266
495 266
496 266
497 266
498 266
499 266
500 266
501 266
502 266
503 266
504 266
505 266
506 266
507 266
508 266
509 266
510 266
511 266
512 266
513 266
514 266
515 266
516 266
517 266
518 266
519 266
520 266
521 266
522 266
523 266
524 266
525 266
526 266
527 266
528 266
529 266
373 267
374 267
375 267
376 267
377 267
378 267
379 267
380 267
381 267
382 267
383 267
384 267
385 267
386 267
387 267
388 267
389 267
390 267
391 267
392 267
393 267
394 267
395 267
396 267
397 267
398 267
399 267
400 267
401 267
402 267
403 267
404 267
405 267
406 267
407 267
408 267
409 267
410 267
411 267
412 267
413 267
414 267
415 267
416 267
417 267
418 267
419 267
420 267
421 267
422 267
423 267
424 267
425 267
426 267
427 267
428 267
429 267
430 267
431 267
432 267
433 267
434 267
435 267
436 267
437 267
438 267
439 267
440 267
441 267
442 267
443 267
444 267
445 267
446 267
447 267
448 267
449 267
450 267
451 267
452 267
453 267
454 267
455 267
456 267
457 267
458 267
459 267
460 267
461 267
462 267
463 267
464 267
465 267
466 267
467 267
468 267
469 267
470 267
471 267
472 267
473 267
474 267
475 267
476 267
477 267
478 267
479 267
480 267
481 267
482 267
483 267
484 267
485 267
486 267
487 267
488 267
489 267
490 267
491 267
492 267
493 267
494 267
495 267
496 267
497 267
498 267
499 267
500 267
501 267
502 267
503 267
504 267
505 267
506 267
507 267
508 267
509 267
510 267
511 267
512 267
513 267
514 267
515 267
516 267
517 267
518 267
519 267
520 267
521 267
522 267
523 267
524 267
525 267
526 267
527 267
528 267
529 267
373 268
374 268
375 268
376 268
377 268
378 268
379 268
380 268
381 268
382 268
383 268
384 268
385 268
386 268
387 268
388 268
389 268
390 268
391 268
392 268
393 268
394 268
395 268
396 268
397 268
398 268
399 268
400 268
401 268
402 268
403 268
404 268
405 268
406 268
407 268
408 268
409 268
410 268
411 268
412 268
413 268
414 268
415 268
416 268
417 268
418 268
419 268
420 268
421 268
422 268
423 268
424 268
425 268
426 268
427 268
428 268
429 268
430 268
431 268
432 268
433 268
434 268
435 268
436 268
437 268
438 268
439 268
440 268
441 268
442 268
443 268
444 268
445 268
446 268
447 268
448 268
449 268
450 268
451 268
452 268
453 268
454 268
455 268
456 268
457 268
458 268
459 268
460 268
461 268
462 268
463 268
464 268
465 268
466 268
467 268
468 268
469 268
470 268
471 268
472 268
473 268
474 268
475 268
476 268
477 268
478 268
479 268
480 268
481 268
482 268
483 268
484 268
485 268
486 268
487 268
488 268
489 268
490 268
491 268
492 268
493 268
494 268
495 268
496 268
497 268
498 268
499 268
500 268
501 268
502 268
503 268
504 268
505 268
506 268
507 268
508 268
509 268
510 268
511 268
512 268
513 268
514 268
515 268
516 268
517 268
518 268
519 268
520 268
521 268
522 268
523 268
524 268
525 268
526 268
527 268
528 268
529 268
373 269
374 269
375 269
376 269
377 269
378 269
379 269
380 269
381 269
382 269
383 269
384 269
385 269
386 269
387 269
388 269
389 269
390 269
391 269
392 269
393 269
394 269
395 269
396 269
397 269
398 269
399 269
400 269
401 269
402 269
403 269
404 269
405 269
406 269
407 269
408 269
409 269
410 269
411 269
412 269
413 269
414 269
415 269
416 269
417 269
418 269
419 269
420 269
421 269
422 269
423 269
424 269
425 269
426 269
427 269
428 269
429 269
430 269
431 269
432 269
433 269
434 269
435 269
436 269
437 269
438 269
439 269
440 269
441 269
442 269
443 269
444 269
445 269
446 269
447 269
448 269
449 269
450 269
451 269
452 269
453 269
454 269
455 269
456 269
457 269
458 269
459 269
460 269
461 269
462 269
463 269
464 269
465 269
466 269
467 269
468 269
469 269
470 269
471 269
472 269
473 269
474 269
475 269
476 269
477 269
478 269
479 269
480 269
481 269
482 269
483 269
484 269
485 269
486 269
487 269
488 269
489 269
490 269
491 269
492 269
493 269
494 269
495 269
496 269
497 269
498 269
499 269
500 269
501 269
502 269
503 269
504 269
505 269
506 269
507 269
508 269
509 269
510 269
511 269
512 269
513 269
514 269
515 269
516 269
517 269
518 269
519 269
520 269
521 269
522 269
523 269
524 269
525 269
526 269
527 269
528 269
529 269
373 270
374 270
375 270
376 270
377 270
378 270
379 270
380 270
381 270
382 270
383 270
384 270
385 270
386 270
387 270
388 270
389 270
390 270
391 270
392 270
393 270
394 270
395 270
396 270
397 270
398 270
399 270
400 270
401 270
402 270
403 270
404 270
405 270
406 270
407 270
408 270
409 270
410 270
411 270
412 270
413 270
414 270
415 270
416 270
417 270
418 270
419 270
420 270
421 270
422 270
423 270
424 270
425 270
426 270
427 270
428 270
429 270
430 270
431 270
432 270
433 270
434 270
435 270
436 270
437 270
438 270
439 270
440 270
441 270
442 270
443 270
444 270
445 270
446 270
447 270
448 270
449 270
450 270
451 270
452 270
453 270
454 270
455 270
456 270
457 270
458 270
459 270
460 270
461 270
462 270
463 270
464 270
465 270
466 270
467 270
468 270
469 270
470 270
471 270
472 270
473 270
474 270
475 270
476 270
477 270
478 270
479 270
480 270
481 270
482 270
483 270
484 270
485 270
486 270
487 270
488 270
489 270
490 270
491 270
492 270
493 270
494 270
495 270
496 270
497 270
498 270
499 270
500 270
501 270
502 270
503 270
504 270
505 270
506 270
507 270
508 270
509 270
510 270
511 270
512 270
513 270
514 270
515 270
516 270
517 270
518 270
519 270
520 270
521 270
522 270
523 270
524 270
525 270
526 270
527 270
528 270
529 270
373 271
374 271
375 271
376 271
377 271
378 271
379 271
380 271
381 271
382 271
383 271
384 271
385 271
386 271
387 271
388 271
389 271
390 271
391 271
392 271
393 271
394 271
395 271
396 271
397 271
398 271
399 271
400 271
401 271
402 271
403 271
404 271
405 271
406 271
407 271
408 271
409 271
410 271
411 271
412 271
413 271
414 271
415 271
416 271
417 271
418 271
419 271
420 271
421 271
422 271
423 271
424 271
425 271
426 271
427 271
428 271
429 271
430 271
431 271
432 271
433 271
434 271
435 271
436 271
437 271
438 271
439 271
440 271
441 271
442 271
443 271
444 271
445 271
446 271
447 271
448 271
449 271
450 271
451 271
452 271
453 271
454 271
455 271
456 271
457 271
458 271
459 271
460 271
461 271
462 271
463 271
464 271
465 271
466 271
467 271
468 271
469 271
470 271
471 271
472 271
473 271
474 271
475 271
476 271
477 271
478 271
479 271
480 271
481 271
482 271
483 271
484 271
485 271
486 271
487 271
488 271
489 271
490 271
491 271
492 271
493 271
494 271
495 271
496 271
497 271
498 271
499 271
500 271
501 271
502 271
503 271
504 271
505 271
506 271
507 271
508 271
509 271
510 271
511 271
512 271
513 271
514 271
515 271
516 271
517 271
518 271
519 271
520 271
521 271
522 271
523 271
524 271
525 271
526 271
527 271
528 271
529 271
373 272
374 272
375 272
376 272
377 272
378 272
379 272
380 272
381 272
382 272
383 272
384 272
385 272
386 272
387 272
388 272
389 272
390 272
391 272
392 272
393 272
394 272
395 272
396 272
397 272
398 272
399 272
400 272
401 272
402 272
403 272
404 272
405 272
406 272
407 272
408 272
409 272
410 272
411 272
412 272
413 272
414 272
415 272
416 272
417 272
418 272
419 272
420 272
421 272
422 272
423 272
424 272
425 272
426 272
427 272
428 272
429 272
430 272
431 272
432 272
433 272
434 272
435 272
436 272
437 272
438 272
439 272
440 272
441 272
442 272
443 272
444 272
445 272
446 272
447 272
448 272
449 272
450 272
451 272
452 272
453 272
454 272
455 272
456 272
457 272
458 272
459 272
460 272
461 272
462 272
463 272
464 272
465 272
466 272
467 272
468 272
469 272
470 272
471 272
472 272
473 272
474 272
475 272
476 272
477 272
478 272
479 272
480 272
481 272
482 272
483 272
484 272
485 272
486 272
487 272
488 272
489 272
490 272
491 272
492 272
493 272
494 272
495 272
496 272
497 272
498 272
499 272
500 272
501 272
502 272
503 272
504 272
505 272
506 272
507 272
508 272
509 272
510 272
511 272
512 272
513 272
514 272
515 272
516 272
517 272
518 272
519 272
520 272
521 272
522 272
523 272
524 272
525 272
526 272
527 272
528 272
529 272
373 273
374 273
375 273
376 273
377 273
378 273
379 273
380 273
381 273
382 273
383 273
384 273
385 273
386 273
387 273
388 273
389 273
390 273
391 273
392 273
393 273
394 273
395 273
396 273
397 273
398 273
399 273
400 273
401 273
402 273
403 273
404 273
405 273
406 273
407 273
408 273
409 273
410 273
411 273
412 273
413 273
414 273
415 273
416 273
417 273
418 273
419 273
420 273
421 273
422 273
423 273
424 273
425 273
426 273
427 273
428 273
429 273
430 273
431 273
432 273
433 273
434 273
435 273
436 273
437 273
438 273
439 273
440 273
441 273
442 273
443 273
444 273
445 273
446 273
447 273
448 273
449 273
450 273
451 273
452 273
453 273
454 273
455 273
456 273
457 273
458 273
459 273
460 273
461 273
462 273
463 273
464 273
465 273
466 273
467 273
468 273
469 273
470 273
471 273
472 273
473 273
474 273
475 273
476 273
477 273
478 273
479 273
480 273
481 273
482 273
483 273
484 273
485 273
486 273
487 273
488 273
489 273
490 273
491 273
492 273
493 273
494 273
495 273
496 273
497 273
498 273
499 273
500 273
501 273
502 273
503 273
504 273
505 273
506 273
507 273
508 273
509 273
510 273
511 273
512 273
513 273
514 273
515 273
516 273
517 273
518 273
519 273
520 273
521 273
522 273
523 273
524 273
525 273
526 273
527 273
528 273
529 273
373 274
374 274
375 274
376 274
377 274
378 274
379 274
380 274
381 274
382 274
383 274
384 274
385 274
386 274
387 274
388 274
389 274
390 274
391 274
392 274
393 274
394 274
395 274
396 274
397 274
398 274
399 274
400 274
401 274
402 274
403 274
404 274
405 274
406 274
407 274
408 274
409 274
410 274
411 274
412 274
413 274
414 274
415 274
416 274
417 274
418 274
419 274
420 274
421 274
422 274
423 274
424 274
425 274
426 274
427 274
428 274
429 274
430 274
431 274
432 274
433 274
434 274
435 274
436 274
437 274
438 274
439 274
440 274
441 274
442 274
443 274
444 274
445 274
446 274
447 274
448 274
449 274
450 274
451 274
452 274
453 274
454 274
455 274
456 274
457 274
458 274
459 274
460 274
461 274
462 274
463 274
464 274
465 274
466 274
467 274
468 274
469 274
470 274
471 274
472 274
473 274
474 274
475 274
476 274
477 274
478 274
479 274
480 274
481 274
482 274
483 274
484 274
485 274
486 274
487 274
488 274
489 274
490 274
491 274
492 274
493 274
494 274
495 274
496 274
497 274
498 274
499 274
500 274
501 274
502 274
503 274
504 274
505 274
506 274
507 274
508 274
509 274
510 274
511 274
512 274
513 274
514 274
515 274
516 274
517 274
518 274
519 274
520 274
521 274
522 274
523 274
524 274
525 274
526 274
527 274
528 274
529 274
373 275
374 275
375 275
376 275
377 275
378 275
379 275
380 275
381 275
382 275
383 275
384 275
385 275
386 275
387 275
388 275
389 275
390 275
391 275
392 275
393 275
394 275
395 275
396 275
397 275
398 275
399 275
400 275
401 275
402 275
403 275
404 275
405 275
406 275
407 275
408 275
409 275
410 275
411 275
412 275
413 275
414 275
415 275
416 275
417 275
418 275
419 275
420 275
421 275
422 275
423 275
424 275
425 275
426 275
427 275
428 275
429 275
430 275
431 275
432 275
433 275
434 275
435 275
436 275
437 275
438 275
439 275
440 275
441 275
442 275
443 275
444 275
445 275
446 275
447 275
448 275
449 275
450 275
451 275
452 275
453 275
454 275
455 275
456 275
457 275
458 275
459 275
460 275
461 275
462 275
463 275
464 275
465 275
466 275
467 275
468 275
469 275
470 275
471 275
472 275
473 275
474 275
475 275
476 275
477 275
478 275
479 275
480 275
481 275
482 275
483 275
484 275
485 275
486 275
487 275
488 275
489 275
490 275
491 275
492 275
493 275
494 275
495 275
496 275
497 275
498 275
499 275
500 275
501 275
502 275
503 275
504 275
505 275
506 275
507 275
508 275
509 275
510 275
511 275
512 275
513 275
514 275
515 275
516 275
517 275
518 275
519 275
520 275
521 275
522 275
523 275
524 275
525 275
526 275
527 275
528 275
529 275
373 276
374 276
375 276
376 276
377 276
378 276
379 276
380 276
381 276
382 276
383 276
384 276
385 276
386 276
387 276
388 276
389 276
390 276
391 276
392 276
393 276
394 276
395 276
396 276
397 276
398 276
399 276
400 276
401 276
402 276
403 276
404 276
405 276
406 276
407 276
408 276
409 276
410 276
411 276
412 276
413 276
414 276
415 276
416 276
417 276
418 276
419 276
420 276
421 276
422 276
423 276
424 276
425 276
426 276
427 276
428 276
429 276
430 276
431 276
432 276
433 276
434 276
435 276
436 276
437 276
438 276
439 276
440 276
441 276
442 276
443 276
444 276
445 276
446 276
447 276
448 276
449 276
450 276
451 276
452 276
453 276
454 276
455 276
456 276
457 276
458 276
459 276
460 276
461 276
462 276
463 276
464 276
465 276
466 276
467 276
468 276
469 276
470 276
471 276
472 276
473 276
474 276
475 276
476 276
477 276
478 276
479 276
480 276
481 276
482 276
483 276
484 276
485 276
486 276
487 276
488 276
489 276
490 276
491 276
492 276
493 276
494 276
495 276
496 276
497 276
498 276
499 276
500 276
501 276
502 276
503 276
504 276
505 276
506 276
507 276
508 276
509 276
510 276
511 276
512 276
513 276
514 276
515 276
516 276
517 276
518 276
519 276
520 276
521 276
522 276
523 276
524 276
525 276
526 276
527 276
528 276
529 276
373 277
374 277
375 277
376 277
377 277
378 277
379 277
380 277
381 277
382 277
383 277
384 277
385 277
386 277
387 277
388 277
389 277
390 277
391 277
392 277
393 277
394 277
395 277
396 277
397 277
398 277
399 277
400 277
401 277
402 277
403 277
404 277
405 277
406 277
407 277
408 277
409 277
410 277
411 277
412 277
413 277
414 277
415 277
416 277
417 277
418 277
419 277
420 277
421 277
422 277
423 277
424 277
425 277
426 277
427 277
428 277
429 277
430 277
431 277
432 277
433 277
434 277
435 277
436 277
437 277
438 277
439 277
440 277
441 277
442 277
443 277
444 277
445 277
446 277
447 277
448 277
449 277
450 277
451 277
452 277
453 277
454 277
455 277
456 277
457 277
458 277
459 277
460 277
461 277
462 277
463 277
464 277
465 277
466 277
467 277
468 277
469 277
470 277
471 277
472 277
473 277
474 277
475 277
476 277
477 277
478 277
479 277
480 277
481 277
482 277
483 277
484 277
485 277
486 277
487 277
488 277
489 277
490 277
491 277
492 277
493 277
494 277
495 277
496 277
497 277
498 277
499 277
500 277
501 277
502 277
503 277
504 277
505 277
506 277
507 277
508 277
509 277
510 277
511 277
512 277
513 277
514 277
515 277
516 277
517 277
518 277
519 277
520 277
521 277
522 277
523 277
524 277
525 277
526 277
527 277
528 277
529 277
373 278
374 278
375 278
376 278
377 278
378 278
379 278
380 278
381 278
382 278
383 278
384 278
385 278
386 278
387 278
388 278
389 278
390 278
391 278
392 278
393 278
394 278
395 278
396 278
397 278
398 278
399 278
400 278
401 278
402 278
403 278
404 278
405 278
406 278
407 278
408 278
409 278
410 278
411 278
412 278
413 278
414 278
415 278
416 278
417 278
418 278
419 278
420 278
421 278
422 278
423 278
424 278
425 278
426 278
427 278
428 278
429 278
430 278
431 278
432 278
433 278
434 278
435 278
436 278
437 278
438 278
439 278
440 278
441 278
442 278
443 278
444 278
445 278
446 278
447 278
448 278
449 278
450 278
451 278
452 278
453 278
454 278
455 278
456 278
457 278
458 278
459 278
460 278
461 278
462 278
463 278
464 278
465 278
466 278
467 278
468 278
469 278
470 278
471 278
472 278
473 278
474 278
475 278
476 278
477 278
478 278
479 278
480 278
481 278
482 278
483 278
484 278
485 278
486 278
487 278
488 278
489 278
490 278
491 278
492 278
493 278
494 278
495 278
496 278
497 278
498 278
499 278
500 278
501 278
502 278
503 278
504 278
505 278
506 278
507 278
508 278
509 278
510 278
511 278
512 278
513 278
514 278
515 278
516 278
517 278
518 278
519 278
520 278
521 278
522 278
523 278
524 278
525 278
526 278
527 278
528 278
529 278
373 279
374 279
375 279
376 279
377 279
378 279
379 279
380 279
381 279
382 279
383 279
384 279
385 279
386 279
387 279
388 279
389 279
390 279
391 279
392 279
393 279
394 279
395 279
396 279
397 279
398 279
399 279
400 279
401 279
402 279
403 279
404 279
405 279
406 279
407 279
408 279
409 279
410 279
411 279
412 279
413 279
414 279
415 279
416 279
417 279
418 279
419 279
420 279
421 279
422 279
423 279
424 279
425 279
426 279
427 279
428 279
429 279
430 279
431 279
432 279
433 279
434 279
435 279
436 279
437 279
438 279
439 279
440 279
441 279
442 279
443 279
444 279
445 279
446 279
447 279
448 279
449 279
450 279
451 279
452 279
453 279
454 279
455 279
456 279
457 279
458 279
459 279
460 279
461 279
462 279
463 279
464 279
465 279
466 279
467 279
468 279
469 279
470 279
471 279
472 279
473 279
474 279
475 279
476 279
477 279
478 279
479 279
480 279
481 279
482 279
483 279
484 279
485 279
486 279
487 279
488 279
489 279
490 279
491 279
492 279
493 279
494 279
495 279
496 279
497 279
498 279
499 279
500 279
501 279
502 279
503 279
504 279
505 279
506 279
507 279
508 279
509 279
510 279
511 279
512 279
513 279
514 279
515 279
516 279
517 279
518 279
519 279
520 279
521 279
522 279
523 279
524 279
525 279
526 279
527 279
528 279
529 279
373 280
374 280
375 280
376 280
377 280
378 280
379 280
380 280
381 280
382 280
383 280
384 280
385 280
386 280
387 280
388 280
389 280
390 280
391 280
392 280
393 280
394 280
395 280
396 280
397 280
398 280
399 280
400 280
401 280
402 280
403 280
404 280
405 280
406 280
407 280
408 280
409 280
410 280
411 280
412 280
413 280
414 280
415 280
416 280
417 280
418 280
419 280
420 280
421 280
422 280
423 280
424 280
425 280
426 280
427 280
428 280
429 280
430 280
431 280
432 280
433 280
434 280
435 280
436 280
437 280
438 280
439 280
440 280
441 280
442 280
443 280
444 280
445 280
446 280
447 280
448 280
449 280
450 280
451 280
452 280
453 280
454 280
455 280
456 280
457 280
458 280
459 280
460 280
461 280
462 280
463 280
464 280
465 280
466 280
467 280
468 280
469 280
470 280
471 280
472 280
473 280
474 280
475 280
476 280
477 280
478 280
479 280
480 280
481 280
482 280
483 280
484 280
485 280
486 280
487 280
488 280
489 280
490 280
491 280
492 280
493 280
494 280
495 280
496 280
497 280
498 280
499 280
500 280
501 280
502 280
503 280
504 280
505 280
506 280
507 280
508 280
509 280
510 280
511 280
512 280
513 280
514 280
515 280
516 280
517 280
518 280
519 280
520 280
521 280
522 280
523 280
524 280
525 280
526 280
527 280
528 280
529 280
373 281
374 281
375 281
376 281
377 281
378 281
379 281
380 281
381 281
382 281
383 281
384 281
385 281
386 281
387 281
388 281
389 281
390 281
391 281
392 281
393 281
394 281
395 281
396 281
397 281
398 281
399 281
400 281
401 281
402 281
403 281
404 281
405 281
406 281
407 281
408 281
409 281
410 281
411 281
412 281
413 281
414 281
415 281
416 281
417 281
418 281
419 281
420 281
421 281
422 281
423 281
424 281
425 281
426 281
427 281
428 281
429 281
430 281
431 281
432 281
433 281
434 281
435 281
436 281
437 281
438 281
439 281
440 281
441 281
442 281
443 281
444 281
445 281
446 281
447 281
448 281
449 281
450 281
451 281
452 281
453 281
454 281
455 281
456 281
457 281
458 281
459 281
460 281
461 281
462 281
463 281
464 281
465 281
466 281
467 281
468 281
469 281
470 281
471 281
472 281
473 281
474 281
475 281
476 281
477 281
478 281
479 281
480 281
481 281
482 281
483 281
484 281
485 281
486 281
487 281
488 281
489 281
490 281
491 281
492 281
493 281
494 281
495 281
496 281
497 281
498 281
499 281
500 281
501 281
502 281
503 281
504 281
505 281
506 281
507 281
508 281
509 281
510 281
511 281
512 281
513 281
514 281
515 281
516 281
517 281
518 281
519 281
520 281
521 281
522 281
523 281
524 281
525 281
526 281
527 281
528 281
529 281
373 282
374 282
375 282
376 282
377 282
378 282
379 282
380 282
381 282
382 282
383 282
384 282
385 282
386 282
387 282
388 282
389 282
390 282
391 282
392 282
393 282
394 282
395 282
396 282
397 282
398 282
399 282
400 282
401 282
402 282
403 282
404 282
405 282
406 282
407 282
408 282
409 282
410 282
411 282
412 282
413 282
414 282
415 282
416 282
417 282
418 282
419 282
420 282
421 282
422 282
423 282
424 282
425 282
426 282
427 282
428 282
429 282
430 282
431 282
432 282
433 282
434 282
435 282
436 282
437 282
438 282
439 282
440 282
441 282
442 282
443 282
444 282
445 282
446 282
447 282
448 282
449 282
450 282
451 282
452 282
453 282
454 282
455 282
456 282
457 282
458 282
459 282
460 282
461 282
462 282
463 282
464 282
465 282
466 282
467 282
468 282
469 282
470 282
471 282
472 282
473 282
474 282
475 282
476 282
477 282
478 282
479 282
480 282
481 282
482 282
483 282
484 282
485 282
486 282
487 282
488 282
489 282
490 282
491 282
492 282
493 282
494 282
495 282
496 282
497 282
498 282
499 282
500 282
501 282
502 282
503 282
504 282
505 282
506 282
507 282
508 282
509 282
510 282
511 282
512 282
513 282
514 282
515 282
516 282
517 282
518 282
519 282
520 282
521 282
522 282
523 282
524 282
525 282
526 282
527 282
528 282
529 282
373 283
374 283
375 283
376 283
377 283
378 283
379 283
380 283
381 283
382 283
383 283
384 283
385 283
386 283
387 283
388 283
389 283
390 283
391 283
392 283
393 283
394 283
395 283
396 283
397 283
398 283
399 283
400 283
401 283
402 283
403 283
404 283
405 283
406 283
407 283
408 283
409 283
410 283
411 283
412 283
413 283
414 283
415 283
416 283
417 283
418 283
419 283
420 283
421 283
422 283
423 283
424 283
425 283
426 283
427 283
428 283
429 283
430 283
431 283
432 283
433 283
434 283
435 283
436 283
437 283
438 283
439 283
440 283
441 283
442 283
443 283
444 283
445 283
446 283
447 283
448 283
449 283
450 283
451 283
452 283
453 283
454 283
455 283
456 283
457 283
458 283
459 283
460 283
461 283
462 283
463 283
464 283
465 283
466 283
467 283
468 283
469 283
470 283
471 283
472 283
473 283
474 283
475 283
476 283
477 283
478 283
479 283
480 283
481 283
482 283
483 283
484 283
485 283
486 283
487 283
488 283
489 283
490 283
491 283
492 283
493 283
494 283
495 283
496 283
497 283
498 283
499 283
500 283
501 283
502 283
503 283
504 283
505 283
506 283
507 283
508 283
509 283
510 283
511 283
512 283
513 283
514 283
515 283
516 283
517 283
518 283
519 283
520 283
521 283
522 283
523 283
524 283
525 283
526 283
527 283
528 283
529 283
373 284
374 284
375 284
376 284
377 284
378 284
379 284
380 284
381 284
382 284
383 284
384 284
385 284
386 284
387 284
388 284
389 284
390 284
391 284
392 284
393 284
394 284
395 284
396 284
397 284
398 284
399 284
400 284
401 284
402 284
403 284
404 284
405 284
406 284
407 284
408 284
409 284
410 284
411 284
412 284
413 284
414 284
415 284
416 284
417 284
418 284
419 284
420 284
421 284
422 284
423 284
424 284
425 284
426 284
427 284
428 284
429 284
430 284
431 284
432 284
433 284
434 284
435 284
436 284
437 284
438 284
439 284
440 284
441 284
442 284
443 284
444 284
445 284
446 284
447 284
448 284
449 284
450 284
451 284
452 284
453 284
454 284
455 284
456 284
457 284
458 284
459 284
460 284
461 284
462 284
463 284
464 284
465 284
466 284
467 284
468 284
469 284
470 284
471 284
472 284
473 284
474 284
475 284
476 284
477 284
478 284
479 284
480 284
481 284
482 284
483 284
484 284
485 284
486 284
487 284
488 284
489 284
490 284
491 284
492 284
493 284
494 284
495 284
496 284
497 284
498 284
499 284
500 284
501 284
502 284
503 284
504 284
505 284
506 284
507 284
508 284
509 284
510 284
511 284
512 284
513 284
514 284
515 284
516 284
517 284
518 284
519 284
520 284
521 284
522 284
523 284
524 284
525 284
526 284
527 284
528 284
529 284
373 285
374 285
375 285
376 285
377 285
378 285
379 285
380 285
381 285
382 285
383 285
384 285
385 285
386 285
387 285
388 285
389 285
390 285
391 285
392 285
393 285
394 285
395 285
396 285
397 285
398 285
399 285
400 285
401 285
402 285
403 285
404 285
405 285
406 285
407 285
408 285
409 285
410 285
411 285
412 285
413 285
414 285
415 285
416 285
417 285
418 285
419 285
420 285
421 285
422 285
423 285
424 285
425 285
426 285
427 285
428 285
429 285
430 285
431 285
432 285
433 285
434 285
435 285
436 285
437 285
438 285
439 285
440 285
441 285
442 285
443 285
444 285
445 285
446 285
447 285
448 285
449 285
450 285
451 285
452 285
453 285
454 285
455 285
456 285
457 285
458 285
459 285
460 285
461 285
462 285
463 285
464 285
465 285
466 285
467 285
468 285
469 285
470 285
471 285
472 285
473 285
474 285
475 285
476 285
477 285
478 285
479 285
480 285
481 285
482 285
483 285
484 285
485 285
486 285
487 285
488 285
489 285
490 285
491 285
492 285
493 285
494 285
495 285
496 285
497 285
498 285
499 285
500 285
501 285
502 285
503 285
504 285
505 285
506 285
507 285
508 285
509 285
510 285
511 285
512 285
513 285
514 285
515 285
516 285
517 285
518 285
519 285
520 285
521 285
522 285
523 285
524 285
525 285
526 285
527 285
528 285
529 285
373 286
374 286
375 286
376 286
377 286
378 286
379 286
380 286
381 286
382 286
383 286
384 286
385 286
386 286
387 286
388 286
389 286
390 286
391 286
392 286
393 286
394 286
395 286
396 286
397 286
398 286
399 286
400 286
401 286
402 286
403 286
404 286
405 286
406 286
407 286
408 286
409 286
410 286
411 286
412 286
413 286
414 286
415 286
416 286
417 286
418 286
419 286
420 286
421 286
422 286
423 286
424 286
425 286
426 286
427 286
428 286
429 286
430 286
431 286
432 286
433 286
434 286
435 286
436 286
437 286
438 286
439 286
440 286
441 286
442 286
443 286
444 286
445 286
446 286
447 286
448 286
449 286
450 286
451 286
452 286
453 286
454 286
455 286
456 286
457 286
458 286
459 286
460 286
461 286
462 286
463 286
464 286
465 286
466 286
467 286
468 286
469 286
470 286
471 286
472 286
473 286
474 286
475 286
476 286
477 286
478 286
479 286
480 286
481 286
482 286
483 286
484 286
485 286
486 286
487 286
488 286
489 286
490 286
491 286
492 286
493 286
494 286
495 286
496 286
497 286
498 286
499 286
500 286
501 286
502 286
503 286
504 286
505 286
506 286
507 286
508 286
509 286
510 286
511 286
512 286
513 286
514 286
515 286
516 286
517 286
518 286
519 286
520 286
521 286
522 286
523 286
524 286
525 286
526 286
527 286
528 286
529 286
373 287
374 287
375 287
376 287
377 287
378 287
379 287
380 287
381 287
382 287
383 287
384 287
385 287
386 287
387 287
388 287
389 287
390 287
391 287
392 287
393 287
394 287
395 287
396 287
397 287
398 287
399 287
400 287
401 287
402 287
403 287
404 287
405 287
406 287
407 287
408 287
409 287
410 287
411 287
412 287
413 287
414 287
415 287
416 287
417 287
418 287
419 287
420 287
421 287
422 287
423 287
424 287
425 287
426 287
427 287
428 287
429 287
430 287
431 287
432 287
433 287
434 287
435 287
436 287
437 287
438 287
439 287
440 287
441 287
442 287
443 287
444 287
445 287
446 287
447 287
448 287
449 287
450 287
451 287
452 287
453 287
454 287
455 287
456 287
457 287
458 287
459 287
460 287
461 287
462 287
463 287
464 287
465 287
466 287
467 287
468 287
469 287
470 287
471 287
472 287
473 287
474 287
475 287
476 287
477 287
478 287
479 287
480 287
481 287
482 287
483 287
484 287
485 287
486 287
487 287
488 287
489 287
490 287
491 287
492 287
493 287
494 287
495 287
496 287
497 287
498 287
499 287
500 287
501 287
502 287
503 287
504 287
505 287
506 287
507 287
508 287
509 287
510 287
511 287
512 287
513 287
514 287
515 287
516 287
517 287
518 287
519 287
520 287
521 287
522 287
523 287
524 287
525 287
526 287
527 287
528 287
529 287
373 288
374 288
375 288
376 288
377 288
378 288
379 288
380 288
381 288
382 288
383 288
384 288
385 288
386 288
387 288
388 288
389 288
390 288
391 288
392 288
393 288
394 288
395 288
396 288
397 288
398 288
399 288
400 288
401 288
402 288
403 288
404 288
405 288
406 288
407 288
408 288
409 288
410 288
411 288
412 288
413 288
414 288
415 288
416 288
417 288
418 288
419 288
420 288
421 288
422 288
423 288
424 288
425 288
426 288
427 288
428 288
429 288
430 288
431 288
432 288
433 288
434 288
435 288
436 288
437 288
438 288
439 288
440 288
441 288
442 288
443 288
444 288
445 288
446 288
447 288
448 288
449 288
450 288
451 288
452 288
453 288
454 288
455 288
456 288
457 288
458 288
459 288
460 288
461 288
462 288
463 288
464 288
465 288
466 288
467 288
468 288
469 288
470 288
471 288
472 288
473 288
474 288
475 288
476 288
477 288
478 288
479 288
480 288
481 288
482 288
483 288
484 288
485 288
486 288
487 288
488 288
489 288
490 288
491 288
492 288
493 288
494 288
495 288
496 288
497 288
498 288
499 288
500 288
501 288
502 288
503 288
504 288
505 288
506 288
507 288
508 288
509 288
510 288
511 288
512 288
513 288
514 288
515 288
516 288
517 288
518 288
519 288
520 288
521 288
522 288
523 288
524 288
525 288
526 288
527 288
528 288
529 288
530 313
531 313
532 313
533 313
534 313
535 313
536 313
537 313
538 313
539 313
540 313
541 313
542 313
543 313
544 313
545 313
546 313
547 313
548 313
549 313
550 313
551 313
552 313
553 313
554 313
555 313
556 313
557 313
558 313
559 313
560 313
561 313
562 313
563 313
564 313
565 313
566 313
567 313
568 313
569 313
570 313
571 313
572 313
573 313
574 313
575 313
576 313
577 313
578 313
579 313
580 313
581 313
582 313
583 313
584 313
585 313
586 313
587 313
588 313
589 313
590 313
591 313
592 313
593 313
594 313
595 313
596 313
597 313
598 313
599 313
530 314
531 314
532 314
533 314
534 314
535 314
536 314
537 314
538 314
539 314
540 314
541 314
542 314
543 314
544 314
545 314
546 314
547 314
548 314
549 314
550 314
551 314
552 314
553 314
554 314
555 314
556 314
557 314
558 314
559 314
560 314
561 314
562 314
563 314
564 314
565 314
566 314
567 314
568 314
569 314
570 314
571 314
572 314
573 314
574 314
575 314
576 314
577 314
578 314
579 314
580 314
581 314
582 314
583 314
584 314
585 314
586 314
587 314
588 314
589 314
590 314
591 314
592 314
593 314
594 314
595 314
596 314
597 314
598 314
599 314
530 315
531 315
532 315
533 315
534 315
535 315
536 315
537 315
538 315
539 315
540 315
541 315
542 315
543 315
544 315
545 315
546 315
547 315
548 315
549 315
550 315
551 315
552 315
553 315
554 315
555 315
556 315
557 315
558 315
559 315
560 315
561 315
562 315
563 315
564 315
565 315
566 315
567 315
568 315
569 315
570 315
571 315
572 315
573 315
574 315
575 315
576 315
577 315
578 315
579 315
580 315
581 315
582 315
583 315
584 315
585 315
586 315
587 315
588 315
589 315
590 315
591 315
592 315
593 315
594 315
595 315
596 315
597 315
598 315
599 315
530 316
531 316
532 316
533 316
534 316
535 316
536 316
537 316
538 316
539 316
540 316
541 316
542 316
543 316
544 316
545 316
546 316
547 316
548 316
549 316
550 316
551 316
552 316
553 316
554 316
555 316
556 316
557 316
558 316
559 316
560 316
561 316
562 316
563 316
564 316
565 316
566 316
567 316
568 316
569 316
570 316
571 316
572 316
573 316
574 316
575 316
576 316
577 316
578 316
579 316
580 316
581 316
582 316
583 316
584 316
585 316
586 316
587 316
588 316
589 316
590 316
591 316
592 316
593 316
594 316
595 316
596 316
597 316
598 316
599 316
530 317
531 317
532 317
533 317
534 317
535 317
536 317
537 317
538 317
539 317
540 317
541 317
542 317
543 317
544 317
545 317
546 317
547 317
548 317
549 317
550 317
551 317
552 317
553 317
554 317
555 317
556 317
557 317
558 317
559 317
560 317
561 317
562 317
563 317
564 317
565 317
566 317
567 317
568 317
569 317
570 317
571 317
572 317
573 317
574 317
575 317
576 317
577 317
578 317
579 317
580 317
581 317
582 317
583 317
584 317
585 317
586 317
587 317
588 317
589 317
590 317
591 317
592 317
593 317
594 317
595 317
596 317
597 317
598 317
599 317
530 318
531 318
532 318
533 318
534 318
535 318
536 318
537 318
538 318
539 318
540 318
541 318
542 318
543 318
544 318
545 318
546 318
547 318
548 318
549 318
550 318
551 318
552 318
553 318
554 318
555 318
556 318
557 318
558 318
559 318
560 318
561 318
562 318
563 318
564 318
565 318
566 318
567 318
568 318
569 318
570 318
571 318
572 318
573 318
574 318
575 318
576 318
577 318
578 318
579 318
580 318
581 318
582 318
583 318
584 318
585 318
586 318
587 318
588 318
589 318
590 318
591 318
592 318
593 318
594 318
595 318
596 318
597 318
598 318
599 318
530 319
531 319
532 319
533 319
534 319
535 319
536 319
537 319
538 319
539 319
540 319
541 319
542 319
543 319
544 319
545 319
546 319
547 319
548 319
549 319
550 319
551 319
552 319
553 319
554 319
555 319
556 319
557 319
558 319
559 319
560 319
561 319
562 319
563 319
564 319
565 319
566 319
567 319
568 319
569 319
570 319
571 319
572 319
573 319
574 319
575 319
576 319
577 319
578 319
579 319
580 319
581 319
582 319
583 319
584 319
585 319
586 319
587 319
588 319
589 319
590 319
591 319
592 319
593 319
594 319
595 319
596 319
597 319
598 319
599 319
530 320
531 320
532 320
533 320
534 320
535 320
536 320
537 320
538 320
539 320
540 320
541 320
542 320
543 320
544 320
545 320
546 320
547 320
548 320
549 320
550 320
551 320
552 320
553 320
554 320
555 320
556 320
557 320
558 320
559 320
560 320
561 320
562 320
563 320
564 320
565 320
566 320
567 320
568 320
569 320
570 320
571 320
572 320
573 320
574 320
575 320
576 320
577 320
578 320
579 320
580 320
581 320
582 320
583 320
584 320
585 320
586 320
587 320
588 320
589 320
590 320
591 320
592 320
593 320
594 320
595 320
596 320
597 320
598 320
599 320
530 321
531 321
532 321
533 321
534 321
535 321
536 321
537 321
538 321
539 321
540 321
541 321
542 321
543 321
544 321
545 321
546 321
547 321
548 321
549 321
550 321
551 321
552 321
553 321
554 321
555 321
556 321
557 321
558 321
559 321
560 321
561 321
562 321
563 321
564 321
565 321
566 321
567 321
568 321
569 321
570 321
571 321
572 321
573 321
574 321
575 321
576 321
577 321
578 321
579 321
580 321
581 321
582 321
583 321
584 321
585 321
586 321
587 321
588 321
589 321
590 321
591 321
592 321
593 321
594 321
595 321
596 321
597 321
598 321
599 321
530 322
531 322
532 322
533 322
534 322
535 322
536 322
537 322
538 322
539 322
540 322
541 322
542 322
543 322
544 322
545 322
546 322
547 322
548 322
549 322
550 322
551 322
552 322
553 322
554 322
555 322
556 322
557 322
558 322
559 322
560 322
561 322
562 322
563 322
564 322
565 322
566 322
567 322
568 322
569 322
570 322
571 322
572 322
573 322
574 322
575 322
576 322
577 322
578 322
579 322
580 322
581 322
582 322
583 322
584 322
585 322
586 322
587 322
588 322
589 322
590 322
591 322
592 322
593 322
594 322
595 322
596 322
597 322
598 322
599 322
530 323
531 323
532 323
533 323
534 323
535 323
536 323
537 323
538 323
539 323
540 323
541 323
542 323
543 323
544 323
545 323
546 323
547 323
548 323
549 323
550 323
551 323
552 323
553 323
554 323
555 323
556 323
557 323
558 323
559 323
560 323
561 323
562 323
563 323
564 323
565 323
566 323
567 323
568 323
569 323
570 323
571 323
572 323
573 323
574 323
575 323
576 323
577 323
578 323
579 323
580 323
581 323
582 323
583 323
584 323
585 323
586 323
587 323
588 323
589 323
590 323
591 323
592 323
593 323
594 323
595 323
596 323
597 323
598 323
599 323
530 324
531 324
532 324
533 324
534 324
535 324
536 324
537 324
538 324
539 324
540 324
541 324
542 324
543 324
544 324
545 324
546 324
547 324
548 324
549 324
550 324
551 324
552 324
553 324
554 324
555 324
556 324
557 324
558 324
559 324
560 324
561 324
562 324
563 324
564 324
565 324
566 324
567 324
568 324
569 324
570 324
571 324
572 324
573 324
574 324
575 324
576 324
577 324
578 324
579 324
580 324
581 324
582 324
583 324
584 324
585 324
586 324
587 324
588 324
589 324
590 324
591 324
592 324
593 324
594 324
595 324
596 324
597 324
598 324
599 324
530 325
531 325
532 325
533 325
534 325
535 325
536 325
537 325
538 325
539 325
540 325
541 325
542 325
543 325
544 325
545 325
546 325
547 325
548 325
549 325
550 325
551 325
552 325
553 325
554 325
555 325
556 325
557 325
558 325
559 325
560 325
561 325
562 325
563 325
564 325
565 325
566 325
567 325
568 325
569 325
570 325
571 325
572 325
573 325
574 325
575 325
576 325
577 325
578 325
579 325
580 325
581 325
582 325
583 325
584 325
585 325
586 325
587 325
588 325
589 325
590 325
591 325
592 325
593 325
594 325
595 325
596 325
597 325
598 325
599 325
530 326
531 326
532 326
533 326
534 326
535 326
536 326
537 326
538 326
539 326
540 326
541 326
542 326
543 326
544 326
545 326
546 326
547 326
548 326
549 326
550 326
551 326
552 326
553 326
554 326
555 326
556 326
557 326
558 326
559 326
560 326
561 326
562 326
563 326
564 326
565 326
566 326
567 326
568 326
569 326
570 326
571 326
572 326
573 326
574 326
575 326
576 326
577 326
578 326
579 326
580 326
581 326
582 326
583 326
584 326
585 326
586 326
587 326
588 326
589 326
590 326
591 326
592 326
593 326
594 326
595 326
596 326
597 326
598 326
599 326
530 327
531 327
532 327
533 327
534 327
535 327
536 327
537 327
538 327
539 327
540 327
541 327
542 327
543 327
544 327
545 327
546 327
547 327
548 327
549 327
550 327
551 327
552 327
553 327
554 327
555 327
556 327
557 327
558 327
559 327
560 327
561 327
562 327
563 327
564 327
565 327
566 327
567 327
568 327
569 327
570 327
571 327
572 327
573 327
574 327
575 327
576 327
577 327
578 327
579 327
580 327
581 327
582 327
583 327
584 327
585 327
586 327
587 327
588 327
589 327
590 327
591 327
592 327
593 327
594 327
595 327
596 327
597 327
598 327
599 327
530 328
531 328
532 328
533 328
534 328
535 328
536 328
537 328
538 328
539 328
540 328
541 328
542 328
543 328
544 328
545 328
546 328
547 328
548 328
549 328
550 328
551 328
552 328
553 328
554 328
555 328
556 328
557 328
558 328
559 328
560 328
561 328
562 328
563 328
564 328
565 328
566 328
567 328
568 328
569 328
570 328
571 328
572 328
573 328
574 328
575 328
576 328
577 328
578 328
579 328
580 328
581 328
582 328
583 328
584 328
585 328
586 328
587 328
588 328
589 328
590 328
591 328
592 328
593 328
594 328
595 328
596 328
597 328
598 328
599 328
530 329
531 329
532 329
533 329
534 329
535 329
536 329
537 329
538 329
539 329
540 329
541 329
542 329
543 329
544 329
545 329
546 329
547 329
548 329
549 329
550 329
551 329
552 329
553 329
554 329
555 329
556 329
557 329
558 329
559 329
560 329
561 329
562 329
563 329
564 329
565 329
566 329
567 329
568 329
569 329
570 329
571 329
572 329
573 329
574 329
575 329
576 329
577 329
578 329
579 329
580 329
581 329
582 329
583 329
584 329
585 329
586 329
587 329
588 329
589 329
590 329
591 329
592 329
593 329
594 329
595 329
596 329
597 329
598 329
599 329
530 330
531 330
532 330
533 330
534 330
535 330
536 330
537 330
538 330
539 330
540 330
541 330
542 330
543 330
544 330
545 330
546 330
547 330
548 330
549 330
550 330
551 330
552 330
553 330
554 330
555 330
556 330
557 330
558 330
559 330
560 330
561 330
562 330
563 330
564 330
565 330
566 330
567 330
568 330
569 330
570 330
571 330
572 330
573 330
574 330
575 330
576 330
577 330
578 330
579 330
580 330
581 330
582 330
583 330
584 330
585 330
586 330
587 330
588 330
589 330
590 330
591 330
592 330
593 330
594 330
595 330
596 330
597 330
598 330
599 330
530 331
531 331
532 331
533 331
534 331
535 331
536 331
537 331
538 331
539 331
540 331
541 331
542 331
543 331
544 331
545 331
546 331
547 331
548 331
549 331
550 331
551 331
552 331
553 331
554 331
555 331
556 331
557 331
558 331
559 331
560 331
561 331
562 331
563 331
564 331
565 331
566 331
567 331
568 331
569 331
570 331
571 331
572 331
573 331
574 331
575 331
576 331
577 331
578 331
579 331
580 331
581 331
582 331
583 331
584 331
585 331
586 331
587 331
588 331
589 331
590 331
591 331
592 331
593 331
594 331
595 331
596 331
597 331
598 331
599 331
530 332
531 332
532 332
533 332
534 332
535 332
536 332
537 332
538 332
539 332
540 332
541 332
542 332
543 332
544 332
545 332
546 332
547 332
548 332
549 332
550 332
551 332
552 332
553 332
554 332
555 332
556 332
557 332
558 332
559 332
560 332
561 332
562 332
563 332
564 332
565 332
566 332
567 332
568 332
569 332
570 332
571 332
572 332
573 332
574 332
575 332
576 332
577 332
578 332
579 332
580 332
581 332
582 332
583 332
584 332
585 332
586 332
587 332
588 332
589 332
590 332
591 332
592 332
593 332
594 332
595 332
596 332
597 332
598 332
599 332
530 333
531 333
532 333
533 333
534 333
535 333
536 333
537 333
538 333
539 333
540 333
541 333
542 333
543 333
544 333
545 333
546 333
547 333
548 333
549 333
550 333
551 333
552 333
553 333
554 333
555 333
556 333
557 333
558 333
559 333
560 333
561 333
562 333
563 333
564 333
565 333
566 333
567 333
568 333
569 333
570 333
571 333
572 333
573 333
574 333
575 333
576 333
577 333
578 333
579 333
580 333
581 333
582 333
583 333
584 333
585 333
586 333
587 333
588 333
589 333
590 333
591 333
592 333
593 333
594 333
595 333
596 333
597 333
598 333
599 333
530 334
531 334
532 334
533 334
534 334
535 334
536 334
537 334
538 334
539 334
540 334
541 334
542 334
543 334
544 334
545 334
546 334
547 334
548 334
549 334
550 334
551 334
552 334
553 334
554 334
555 334
556 334
557 334
558 334
559 334
560 334
561 334
562 334
563 334
564 334
565 334
566 334
567 334
568 334
569 334
570 334
571 334
572 334
573 334
574 334
575 334
576 334
577 334
578 334
579 334
580 334
581 334
582 334
583 334
584 334
585 334
586 334
587 334
588 334
589 334
590 334
591 334
592 334
593 334
594 334
595 334
596 334
597 334
598 334
599 334
530 335
531 335
532 335
533 335
534 335
535 335
536 335
537 335
538 335
539 335
540 335
541 335
542 335
543 335
544 335
545 335
546 335
547 335
548 335
549 335
550 335
551 335
552 335
553 335
554 335
555 335
556 335
557 335
558 335
559 335
560 335
561 335
562 335
563 335
564 335
565 335
566 335
567 335
568 335
569 335
570 335
571 335
572 335
573 335
574 335
575 335
576 335
577 335
578 335
579 335
580 335
581 335
582 335
583 335
584 335
585 335
586 335
587 335
588 335
589 335
590 335
591 335
592 335
593 335
594 335
595 335
596 335
597 335
598 335
599 335
530 336
531 336
532 336
533 336
534 336
535 336
536 336
537 336
538 336
539 336
540 336
541 336
542 336
543 336
544 336
545 336
546 336
547 336
548 336
549 336
550 336
551 336
552 336
553 336
554 336
555 336
556 336
557 336
558 336
559 336
560 336
561 336
562 336
563 336
564 336
565 336
566 336
567 336
568 336
569 336
570 336
571 336
572 336
573 336
574 336
575 336
576 336
577 336
578 336
579 336
580 336
581 336
582 336
583 336
584 336
585 336
586 336
587 336
588 336
589 336
590 336
591 336
592 336
593 336
594 336
595 336
596 336
597 336
598 336
599 336
530 337
531 337
532 337
533 337
534 337
535 337
536 337
537 337
538 337
539 337
540 337
541 337
542 337
543 337
544 337
545 337
546 337
547 337
548 337
549 337
550 337
551 337
552 337
553 337
554 337
555 337
556 337
557 337
558 337
559 337
560 337
561 337
562 337
563 337
564 337
565 337
566 337
567 337
568 337
569 337
570 337
571 337
572 337
573 337
574 337
575 337
576 337
577 337
578 337
579 337
580 337
581 337
582 337
583 337
584 337
585 337
586 337
587 337
588 337
589 337
590 337
591 337
592 337
593 337
594 337
595 337
596 337
597 337
598 337
599 337
530 338
531 338
532 338
533 338
534 338
535 338
536 338
537 338
538 338
539 338
540 338
541 338
542 338
543 338
544 338
545 338
546 338
547 338
548 338
549 338
550 338
551 338
552 338
553 338
554 338
555 338
556 338
557 338
558 338
559 338
560 338
561 338
562 338
563 338
564 338
565 338
566 338
567 338
568 338
569 338
570 338
571 338
572 338
573 338
574 338
575 338
576 338
577 338
578 338
579 338
580 338
581 338
582 338
583 338
584 338
585 338
586 338
587 338
588 338
589 338
590 338
591 338
592 338
593 338
594 338
595 338
596 338
597 338
598 338
599 338
530 339
531 339
532 339
533 339
534 339
535 339
536 339
537 339
538 339
539 339
540 339
541 339
542 339
543 339
544 339
545 339
546 339
547 339
548 339
549 339
550 339
551 339
552 339
553 339
554 339
555 339
556 339
557 339
558 339
559 339
560 339
561 339
562 339
563 339
564 339
565 339
566 339
567 339
568 339
569 339
570 339
571 339
572 339
573 339
574 339
575 339
576 339
577 339
578 339
579 339
580 339
581 339
582 339
583 339
584 339
585 339
586 339
587 339
588 339
589 339
590 339
591 339
592 339
593 339
594 339
595 339
596 339
597 339
598 339
599 339
530 340
531 340
532 340
533 340
534 340
535 340
536 340
537 340
538 340
539 340
540 340
541 340
542 340
543 340
544 340
545 340
546 340
547 340
548 340
549 340
550 340
551 340
552 340
553 340
554 340
555 340
556 340
557 340
558 340
559 340
560 340
561 340
562 340
563 340
564 340
565 340
566 340
567 340
568 340
569 340
570 340
571 340
572 340
573 340
574 340
575 340
576 340
577 340
578 340
579 340
580 340
581 340
582 340
583 340
584 340
585 340
586 340
587 340
588 340
589 340
590 340
591 340
592 340
593 340
594 340
595 340
596 340
597 340
598 340
599 340
530 341
531 341
532 341
533 341
534 341
535 341
536 341
537 341
538 341
539 341
540 341
541 341
542 341
543 341
544 341
545 341
546 341
547 341
548 341
549 341
550 341
551 341
552 341
553 341
554 341
555 341
556 341
557 341
558 341
559 341
560 341
561 341
562 341
563 341
564 341
565 341
566 341
567 341
568 341
569 341
570 341
571 341
572 341
573 341
574 341
575 341
576 341
577 341
578 341
579 341
580 341
581 341
582 341
583 341
584 341
585 341
586 341
587 341
588 341
589 341
590 341
591 341
592 341
593 341
594 341
595 341
596 341
597 341
598 341
599 341
530 342
531 342
532 342
533 342
534 342
535 342
536 342
537 342
538 342
539 342
540 342
541 342
542 342
543 342
544 342
545 342
546 342
547 342
548 342
549 342
550 342
551 342
552 342
553 342
554 342
555 342
556 342
557 342
558 342
559 342
560 342
561 342
562 342
563 342
564 342
565 342
566 342
567 342
568 342
569 342
570 342
571 342
572 342
573 342
574 342
575 342
576 342
577 342
578 342
579 342
580 342
581 342
582 342
583 342
584 342
585 342
586 342
587 342
588 342
589 342
590 342
591 342
592 342
593 342
594 342
595 342
596 342
597 342
598 342
599 342
530 343
531 343
532 343
533 343
534 343
535 343
536 343
537 343
538 343
539 343
540 343
541 343
542 343
543 343
544 343
545 343
546 343
547 343
548 343
549 343
550 343
551 343
552 343
553 343
554 343
555 343
556 343
557 343
558 343
559 343
560 343
561 343
562 343
563 343
564 343
565 343
566 343
567 343
568 343
569 343
570 343
571 343
572 343
573 343
574 343
575 343
576 343
577 343
578 343
579 343
580 343
581 343
582 343
583 343
584 343
585 343
586 343
587 343
588 343
589 343
590 343
591 343
592 343
593 343
594 343
595 343
596 343
597 343
598 343
599 343
530 344
531 344
532 344
533 344
534 344
535 344
536 344
537 344
538 344
539 344
540 344
541 344
542 344
543 344
544 344
545 344
546 344
547 344
548 344
549 344
550 344
551 344
552 344
553 344
554 344
555 344
556 344
557 344
558 344
559 344
560 344
561 344
562 344
563 344
564 344
565 344
566 344
567 344
568 344
569 344
570 344
571 344
572 344
573 344
574 344
575 344
576 344
577 344
578 344
579 344
580 344
581 344
582 344
583 344
584 344
585 344
586 344
587 344
588 344
589 344
590 344
591 344
592 344
593 344
594 344
595 344
596 344
597 344
598 344
599 344
530 345
531 345
532 345
533 345
534 345
535 345
536 345
537 345
538 345
539 345
540 345
541 345
542 345
543 345
544 345
545 345
546 345
547 345
548 345
549 345
550 345
551 345
552 345
553 345
554 345
555 345
556 345
557 345
558 345
559 345
560 345
561 345
562 345
563 345
564 345
565 345
566 345
567 345
568 345
569 345
570 345
571 345
572 345
573 345
574 345
575 345
576 345
577 345
578 345
579 345
580 345
581 345
582 345
583 345
584 345
585 345
586 345
587 345
588 345
589 345
590 345
591 345
592 345
593 345
594 345
595 345
596 345
597 345
598 345
599 345
530 346
531 346
532 346
533 346
534 346
535 346
536 346
537 346
538 346
539 346
540 346
541 346
542 346
543 346
544 346
545 346
546 346
547 346
548 346
549 346
550 346
551 346
552 346
553 346
554 346
555 346
556 346
557 346
558 346
559 346
560 346
561 346
562 346
563 346
564 346
565 346
566 346
567 346
568 346
569 346
570 346
571 346
572 346
573 346
574 346
575 346
576 346
577 346
578 346
579 346
580 346
581 346
582 346
583 346
584 346
585 346
586 346
587 346
588 346
589 346
590 346
591 346
592 346
593 346
594 346
595 346
596 346
597 346
598 346
599 346
530 347
531 347
532 347
533 347
534 347
535 347
536 347
537 347
538 347
539 347
540 347
541 347
542 347
543 347
544 347
545 347
546 347
547 347
548 347
549 347
550 347
551 347
552 347
553 347
554 347
555 347
556 347
557 347
558 347
559 347
560 347
561 347
562 347
563 347
564 347
565 347
566 347
567 347
568 347
569 347
570 347
571 347
572 347
573 347
574 347
575 347
576 347
577 347
578 347
579 347
580 347
581 347
582 347
583 347
584 347
585 347
586 347
587 347
588 347
589 347
590 347
591 347
592 347
593 347
594 347
595 347
596 347
597 347
598 347
599 347
530 348
531 348
532 348
533 348
534 348
535 348
536 348
537 348
538 348
539 348
540 348
541 348
542 348
543 348
544 348
545 348
546 348
547 348
548 348
549 348
550 348
551 348
552 348
553 348
554 348
555 348
556 348
557 348
558 348
559 348
560 348
561 348
562 348
563 348
564 348
565 348
566 348
567 348
568 348
569 348
570 348
571 348
572 348
573 348
574 348
575 348
576 348
577 348
578 348
579 348
580 348
581 348
582 348
583 348
584 348
585 348
586 348
587 348
588 348
589 348
590 348
591 348
592 348
593 348
594 348
595 348
596 348
597 348
598 348
599 348
530 349
531 349
532 349
533 349
534 349
535 349
536 349
537 349
538 349
539 349
540 349
541 349
542 349
543 349
544 349
545 349
546 349
547 349
548 349
549 349
550 349
551 349
552 349
553 349
554 349
555 349
556 349
557 349
558 349
559 349
560 349
561 349
562 349
563 349
564 349
565 349
566 349
567 349
568 349
569 349
570 349
571 349
572 349
573 349
574 349
575 349
576 349
577 349
578 349
579 349
580 349
581 349
582 349
583 349
584 349
585 349
586 349
587 349
588 349
589 349
590 349
591 349
592 349
593 349
594 349
595 349
596 349
597 349
598 349
599 349
530 350
531 350
532 350
533 350
534 350
535 350
536 350
537 350
538 350
539 350
540 350
541 350
542 350
543 350
544 350
545 350
546 350
547 350
548 350
549 350
550 350
551 350
552 350
553 350
554 350
555 350
556 350
557 350
558 350
559 350
560 350
561 350
562 350
563 350
564 350
565 350
566 350
567 350
568 350
569 350
570 350
571 350
572 350
573 350
574 350
575 350
576 350
577 350
578 350
579 350
580 350
581 350
582 350
583 350
584 350
585 350
586 350
587 350
588 350
589 350
590 350
591 350
592 350
593 350
594 350
595 350
596 350
597 350
598 350
599 350
530 351
531 351
532 351
533 351
534 351
535 351
536 351
537 351
538 351
539 351
540 351
541 351
542 351
543 351
544 351
545 351
546 351
547 351
548 351
549 351
550 351
551 351
552 351
553 351
554 351
555 351
556 351
557 351
558 351
559 351
560 351
561 351
562 351
563 351
564 351
565 351
566 351
567 351
568 351
569 351
570 351
571 351
572 351
573 351
574 351
575 351
576 351
577 351
578 351
579 351
580 351
581 351
582 351
583 351
584 351
585 351
586 351
587 351
588 351
589 351
590 351
591 351
592 351
593 351
594 351
595 351
596 351
597 351
598 351
599 351
530 352
531 352
532 352
533 352
534 352
535 352
536 352
537 352
538 352
539 352
540 352
541 352
542 352
543 352
544 352
545 352
546 352
547 352
548 352
549 352
550 352
551 352
552 352
553 352
554 352
555 352
556 352
557 352
558 352
559 352
560 352
561 352
562 352
563 352
564 352
565 352
566 352
567 352
568 352
569 352
570 352
571 352
572 352
573 352
574 352
575 352
576 352
577 352
578 352
579 352
580 352
581 352
582 352
583 352
584 352
585 352
586 352
587 352
588 352
589 352
590 352
591 352
592 352
593 352
594 352
595 352
596 352
597 352
598 352
599 352
530 353
531 353
532 353
533 353
534 353
535 353
536 353
537 353
538 353
539 353
540 353
541 353
542 353
543 353
544 353
545 353
546 353
547 353
548 353
549 353
550 353
551 353
552 353
553 353
554 353
555 353
556 353
557 353
558 353
559 353
560 353
561 353
562 353
563 353
564 353
565 353
566 353
567 353
568 353
569 353
570 353
571 353
572 353
573 353
574 353
575 353
576 353
577 353
578 353
579 353
580 353
581 353
582 353
583 353
584 353
585 353
586 353
587 353
588 353
589 353
590 353
591 353
592 353
593 353
594 353
595 353
596 353
597 353
598 353
599 353
530 354
531 354
532 354
533 354
534 354
535 354
536 354
537 354
538 354
539 354
540 354
541 354
542 354
543 354
544 354
545 354
546 354
547 354
548 354
549 354
550 354
551 354
552 354
553 354
554 354
555 354
556 354
557 354
558 354
559 354
560 354
561 354
562 354
563 354
564 354
565 354
566 354
567 354
568 354
569 354
570 354
571 354
572 354
573 354
574 354
575 354
576 354
577 354
578 354
579 354
580 354
581 354
582 354
583 354
584 354
585 354
586 354
587 354
588 354
589 354
590 354
591 354
592 354
593 354
594 354
595 354
596 354
597 354
598 354
599 354
530 355
531 355
532 355
533 355
534 355
535 355
536 355
537 355
538 355
539 355
540 355
541 355
542 355
543 355
544 355
545 355
546 355
547 355
548 355
549 355
550 355
551 355
552 355
553 355
554 355
555 355
556 355
557 355
558 355
559 355
560 355
561 355
562 355
563 355
564 355
565 355
566 355
567 355
568 355
569 355
570 355
571 355
572 355
573 355
574 355
575 355
576 355
577 355
578 355
579 355
580 355
581 355
582 355
583 355
584 355
585 355
586 355
587 355
588 355
589 355
590 355
591 355
592 355
593 355
594 355
595 355
596 355
597 355
598 355
599 355
530 356
531 356
532 356
533 356
534 356
535 356
536 356
537 356
538 356
539 356
540 356
541 356
542 356
543 356
544 356
545 356
546 356
547 356
548 356
549 356
550 356
551 356
552 356
553 356
554 356
555 356
556 356
557 356
558 356
559 356
560 356
561 356
562 356
563 356
564 356
565 356
566 356
567 356
568 356
569 356
570 356
571 356
572 356
573 356
574 356
575 356
576 356
577 356
578 356
579 356
580 356
581 356
582 356
583 356
584 356
585 356
586 356
587 356
588 356
589 356
590 356
591 356
592 356
593 356
594 356
595 356
596 356
597 356
598 356
599 356
530 357
531 357
532 357
533 357
534 357
535 357
536 357
537 357
538 357
539 357
540 357
541 357
542 357
543 357
544 357
545 357
546 357
547 357
548 357
549 357
550 357
551 357
552 357
553 357
554 357
555 357
556 357
557 357
558 357
559 357
560 357
561 357
562 357
563 357
564 357
565 357
566 357
567 357
568 357
569 357
570 357
571 357
572 357
573 357
574 357
575 357
576 357
577 357
578 357
579 357
580 357
581 357
582 357
583 357
584 357
585 357
586 357
587 357
588 357
589 357
590 357
591 357
592 357
593 357
594 357
595 357
596 357
597 357
598 357
599 357
530 358
531 358
532 358
533 358
534 358
535 358
536 358
537 358
538 358
539 358
540 358
541 358
542 358
543 358
544 358
545 358
546 358
547 358
548 358
549 358
550 358
551 358
552 358
553 358
554 358
555 358
556 358
557 358
558 358
559 358
560 358
561 358
562 358
563 358
564 358
565 358
566 358
567 358
568 358
569 358
570 358
571 358
572 358
573 358
574 358
575 358
576 358
577 358
578 358
579 358
580 358
581 358
582 358
583 358
584 358
585 358
586 358
587 358
588 358
589 358
590 358
591 358
592 358
593 358
594 358
595 358
596 358
597 358
598 358
599 358
530 359
531 359
532 359
533 359
534 359
535 359
536 359
537 359
538 359
539 359
540 359
541 359
542 359
543 359
544 359
545 359
546 359
547 359
548 359
549 359
550 359
551 359
552 359
553 359
554 359
555 359
556 359
557 359
558 359
559 359
560 359
561 359
562 359
563 359
564 359
565 359
566 359
567 359
568 359
569 359
570 359
571 359
572 359
573 359
574 359
575 359
576 359
577 359
578 359
579 359
580 359
581 359
582 359
583 359
584 359
585 359
586 359
587 359
588 359
589 359
590 359
591 359
592 359
593 359
594 359
595 359
596 359
597 359
598 359
599 359
530 360
531 360
532 360
533 360
534 360
535 360
536 360
537 360
538 360
539 360
540 360
541 360
542 360
543 360
544 360
545 360
546 360
547 360
548 360
549 360
550 360
551 360
552 360
553 360
554 360
555 360
556 360
557 360
558 360
559 360
560 360
561 360
562 360
563 360
564 360
565 360
566 360
567 360
568 360
569 360
570 360
571 360
572 360
573 360
574 360
575 360
576 360
577 360
578 360
579 360
580 360
581 360
582 360
583 360
584 360
585 360
586 360
587 360
588 360
589 360
590 360
591 360
592 360
593 360
594 360
595 360
596 360
597 360
598 360
599 360
530 361
531 361
532 361
533 361
534 361
535 361
536 361
537 361
538 361
539 361
540 361
541 361
542 361
543 361
544 361
545 361
546 361
547 361
548 361
549 361
550 361
551 361
552 361
553 361
554 361
555 361
556 361
557 361
558 361
559 361
560 361
561 361
562 361
563 361
564 361
565 361
566 361
567 361
568 361
569 361
570 361
571 361
572 361
573 361
574 361
575 361
576 361
577 361
578 361
579 361
580 361
581 361
582 361
583 361
584 361
585 361
586 361
587 361
588 361
589 361
590 361
591 361
592 361
593 361
594 361
595 361
596 361
597 361
598 361
599 361
530 362
531 362
532 362
533 362
534 362
535 362
536 362
537 362
538 362
539 362
540 362
541 362
542 362
543 362
544 362
545 362
546 362
547 362
548 362
549 362
550 362
551 362
552 362
553 362
554 362
555 362
556 362
557 362
558 362
559 362
560 362
561 362
562 362
563 362
564 362
565 362
566 362
567 362
568 362
569 362
570 362
571 362
572 362
573 362
574 362
575 362
576 362
577 362
578 362
579 362
580 362
581 362
582 362
583 362
584 362
585 362
586 362
587 362
588 362
589 362
590 362
591 362
592 362
593 362
594 362
595 362
596 362
597 362
598 362
599 362
530 363
531 363
532 363
533 363
534 363
535 363
536 363
537 363
538 363
539 363
540 363
541 363
542 363
543 363
544 363
545 363
546 363
547 363
548 363
549 363
550 363
551 363
552 363
553 363
554 363
555 363
556 363
557 363
558 363
559 363
560 363
561 363
562 363
563 363
564 363
565 363
566 363
567 363
568 363
569 363
570 363
571 363
572 363
573 363
574 363
575 363
576 363
577 363
578 363
579 363
580 363
581 363
582 363
583 363
584 363
585 363
586 363
587 363
588 363
589 363
590 363
591 363
592 363
593 363
594 363
595 363
596 363
597 363
598 363
599 363
530 364
531 364
532 364
533 364
534 364
535 364
536 364
537 364
538 364
539 364
540 364
541 364
542 364
543 364
544 364
545 364
546 364
547 364
548 364
549 364
550 364
551 364
552 364
553 364
554 364
555 364
556 364
557 364
558 364
559 364
560 364
561 364
562 364
563 364
564 364
565 364
566 364
567 364
568 364
569 364
570 364
571 364
572 364
573 364
574 364
575 364
576 364
577 364
578 364
579 364
580 364
581 364
582 364
583 364
584 364
585 364
586 364
587 364
588 364
589 364
590 364
591 364
592 364
593 364
594 364
595 364
596 364
597 364
598 364
599 364
530 365
531 365
532 365
533 365
534 365
535 365
536 365
537 365
538 365
539 365
540 365
541 365
542 365
543 365
544 365
545 365
546 365
547 365
548 365
549 365
550 365
551 365
552 365
553 365
554 365
555 365
556 365
557 365
558 365
559 365
560 365
561 365
562 365
563 365
564 365
565 365
566 365
567 365
568 365
569 365
570 365
571 365
572 365
573 365
574 365
575 365
576 365
577 365
578 365
579 365
580 365
581 365
582 365
583 365
584 365
585 365
586 365
587 365
588 365
589 365
590 365
591 365
592 365
593 365
594 365
595 365
596 365
597 365
598 365
599 365
530 366
531 366
532 366
533 366
534 366
535 366
536 366
537 366
538 366
539 366
540 366
541 366
542 366
543 366
544 366
545 366
546 366
547 366
548 366
549 366
550 366
551 366
552 366
553 366
554 366
555 366
556 366
557 366
558 366
559 366
560 366
561 366
562 366
563 366
564 366
565 366
566 366
567 366
568 366
569 366
570 366
571 366
572 366
573 366
574 366
575 366
576 366
577 366
578 366
579 366
580 366
581 366
582 366
583 366
584 366
585 366
586 366
587 366
588 366
589 366
590 366
591 366
592 366
593 366
594 366
595 366
596 366
597 366
598 366
599 366
530 367
531 367
532 367
533 367
534 367
535 367
536 367
537 367
538 367
539 367
540 367
541 367
542 367
543 367
544 367
545 367
546 367
547 367
548 367
549 367
550 367
551 367
552 367
553 367
554 367
555 367
556 367
557 367
558 367
559 367
560 367
561 367
562 367
563 367
564 367
565 367
566 367
567 367
568 367
569 367
570 367
571 367
572 367
573 367
574 367
575 367
576 367
577 367
578 367
579 367
580 367
581 367
582 367
583 367
584 367
585 367
586 367
587 367
588 367
589 367
590 367
591 367
592 367
593 367
594 367
595 367
596 367
597 367
598 367
599 367
530 368
531 368
532 368
533 368
534 368
535 368
536 368
537 368
538 368
539 368
540 368
541 368
542 368
543 368
544 368
545 368
546 368
547 368
548 368
549 368
550 368
551 368
552 368
553 368
554 368
555 368
556 368
557 368
558 368
559 368
560 368
561 368
562 368
563 368
564 368
565 368
566 368
567 368
568 368
569 368
570 368
571 368
572 368
573 368
574 368
575 368
576 368
577 368
578 368
579 368
580 368
581 368
582 368
583 368
584 368
585 368
586 368
587 368
588 368
589 368
590 368
591 368
592 368
593 368
594 368
595 368
596 368
597 368
598 368
599 368
530 369
531 369
532 369
533 369
534 369
535 369
536 369
537 369
538 369
539 369
540 369
541 369
542 369
543 369
544 369
545 369
546 369
547 369
548 369
549 369
550 369
551 369
552 369
553 369
554 369
555 369
556 369
557 369
558 369
559 369
560 369
561 369
562 369
563 369
564 369
565 369
566 369
567 369
568 369
569 369
570 369
571 369
572 369
573 369
574 369
575 369
576 369
577 369
578 369
579 369
580 369
581 369
582 369
583 369
584 369
585 369
586 369
587 369
588 369
589 369
590 369
591 369
592 369
593 369
594 369
595 369
596 369
597 369
598 369
599 369
530 370
531 370
532 370
533 370
534 370
535 370
536 370
537 370
538 370
539 370
540 370
541 370
542 370
543 370
544 370
545 370
546 370
547 370
548 370
549 370
550 370
551 370
552 370
553 370
554 370
555 370
556 370
557 370
558 370
559 370
560 370
561 370
562 370
563 370
564 370
565 370
566 370
567 370
568 370
569 370
570 370
571 370
572 370
573 370
574 370
575 370
576 370
577 370
578 370
579 370
580 370
581 370
582 370
583 370
584 370
585 370
586 370
587 370
588 370
589 370
590 370
591 370
592 370
593 370
594 370
595 370
596 370
597 370
598 370
599 370
530 371
531 371
532 371
533 371
534 371
535 371
536 371
537 371
538 371
539 371
540 371
541 371
542 371
543 371
544 371
545 371
546 371
547 371
548 371
549 371
550 371
551 371
552 371
553 371
554 371
555 371
556 371
557 371
558 371
559 371
560 371
561 371
562 371
563 371
564 371
565 371
566 371
567 371
568 371
569 371
570 371
571 371
572 371
573 371
574 371
575 371
576 371
577 371
578 371
579 371
580 371
581 371
582 371
583 371
584 371
585 371
586 371
587 371
588 371
589 371
590 371
591 371
592 371
593 371
594 371
595 371
596 371
597 371
598 371
599 371
530 372
531 372
532 372
533 372
534 372
535 372
536 372
537 372
538 372
539 372
540 372
541 372
542 372
543 372
544 372
545 372
546 372
547 372
548 372
549 372
550 372
551 372
552 372
553 372
554 372
555 372
556 372
557 372
558 372
559 372
560 372
561 372
562 372
563 372
564 372
565 372
566 372
567 372
568 372
569 372
570 372
571 372
572 372
573 372
574 372
575 372
576 372
577 372
578 372
579 372
580 372
581 372
582 372
583 372
584 372
585 372
586 372
587 372
588 372
589 372
590 372
591 372
592 372
593 372
594 372
595 372
596 372
597 372
598 372
599 372
530 373
531 373
532 373
533 373
534 373
535 373
536 373
537 373
538 373
539 373
540 373
541 373
542 373
543 373
544 373
545 373
546 373
547 373
548 373
549 373
550 373
551 373
552 373
553 373
554 373
555 373
556 373
557 373
558 373
559 373
560 373
561 373
562 373
563 373
564 373
565 373
566 373
567 373
568 373
569 373
570 373
571 373
572 373
573 373
574 373
575 373
576 373
577 373
578 373
579 373
580 373
581 373
582 373
583 373
584 373
585 373
586 373
587 373
588 373
589 373
590 373
591 373
592 373
593 373
594 373
595 373
596 373
597 373
598 373
599 373
530 374
531 374
532 374
533 374
534 374
535 374
536 374
537 374
538 374
539 374
540 374
541 374
542 374
543 374
544 374
545 374
546 374
547 374
548 374
549 374
550 374
551 374
552 374
553 374
554 374
555 374
556 374
557 374
558 374
559 374
560 374
561 374
562 374
563 374
564 374
565 374
566 374
567 374
568 374
569 374
570 374
571 374
572 374
573 374
574 374
575 374
576 374
577 374
578 374
579 374
580 374
581 374
582 374
583 374
584 374
585 374
586 374
587 374
588 374
589 374
590 374
591 374
592 374
593 374
594 374
595 374
596 374
597 374
598 374
599 374
530 375
531 375
532 375
533 375
534 375
535 375
536 375
537 375
538 375
539 375
540 375
541 375
542 375
543 375
544 375
545 375
546 375
547 375
548 375
549 375
550 375
551 375
552 375
553 375
554 375
555 375
556 375
557 375
558 375
559 375
560 375
561 375
562 375
563 375
564 375
565 375
566 375
567 375
568 375
569 375
570 375
571 375
572 375
573 375
574 375
575 375
576 375
577 375
578 375
579 375
580 375
581 375
582 375
583 375
584 375
585 375
586 375
587 375
588 375
589 375
590 375
591 375
592 375
593 375
594 375
595 375
596 375
597 375
598 375
599 375
530 376
531 376
532 376
533 376
534 376
535 376
536 376
537 376
538 376
539 376
540 376
541 376
542 376
543 376
544 376
545 376
546 376
547 376
548 376
549 376
550 376
551 376
552 376
553 376
554 376
555 376
556 376
557 376
558 376
559 376
560 376
561 376
562 376
563 376
564 376
565 376
566 376
567 376
568 376
569 376
570 376
571 376
572 376
573 376
574 376
575 376
576 376
577 376
578 376
579 376
580 376
581 376
582 376
583 376
584 376
585 376
586 376
587 376
588 376
589 376
590 376
591 376
592 376
593 376
594 376
595 376
596 376
597 376
598 376
599 376
530 377
531 377
532 377
533 377
534 377
535 377
536 377
537 377
538 377
539 377
540 377
541 377
542 377
543 377
544 377
545 377
546 377
547 377
548 377
549 377
550 377
551 377
552 377
553 377
554 377
555 377
556 377
557 377
558 377
559 377
560 377
561 377
562 377
563 377
564 377
565 377
566 377
567 377
568 377
569 377
570 377
571 377
572 377
573 377
574 377
575 377
576 377
577 377
578 377
579 377
580 377
581 377
582 377
583 377
584 377
585 377
586 377
587 377
588 377
589 377
590 377
591 377
592 377
593 377
594 377
595 377
596 377
597 377
598 377
599 377
530 378
531 378
532 378
533 378
534 378
535 378
536 378
537 378
538 378
539 378
540 378
541 378
542 378
543 378
544 378
545 378
546 378
547 378
548 378
549 378
550 378
551 378
552 378
553 378
554 378
555 378
556 378
557 378
558 378
559 378
560 378
561 378
562 378
563 378
564 378
565 378
566 378
567 378
568 378
569 378
570 378
571 378
572 378
573 378
574 378
575 378
576 378
577 378
578 378
579 378
580 378
581 378
582 378
583 378
584 378
585 378
586 378
587 378
588 378
589 378
590 378
591 378
592 378
593 378
594 378
595 378
596 378
597 378
598 378
599 378
530 379
531 379
532 379
533 379
534 379
535 379
536 379
537 379
538 379
539 379
540 379
541 379
542 379
543 379
544 379
545 379
546 379
547 379
548 379
549 379
550 379
551 379
552 379
553 379
554 379
555 379
556 379
557 379
558 379
559 379
560 379
561 379
562 379
563 379
564 379
565 379
566 379
567 379
568 379
569 379
570 379
571 379
572 379
573 379
574 379
575 379
576 379
577 379
578 379
579 379
580 379
581 379
582 379
583 379
584 379
585 379
586 379
587 379
588 379
589 379
590 379
591 379
592 379
593 379
594 379
595 379
596 379
597 379
598 379
599 379
530 380
531 380
532 380
533 380
534 380
535 380
536 380
537 380
538 380
539 380
540 380
541 380
542 380
543 380
544 380
545 380
546 380
547 380
548 380
549 380
550 380
551 380
552 380
553 380
554 380
555 380
556 380
557 380
558 380
559 380
560 380
561 380
562 380
563 380
564 380
565 380
566 380
567 380
568 380
569 380
570 380
571 380
572 380
573 380
574 380
575 380
576 380
577 380
578 380
579 380
580 380
581 380
582 380
583 380
584 380
585 380
586 380
587 380
588 380
589 380
590 380
591 380
592 380
593 380
594 380
595 380
596 380
597 380
598 380
599 380
530 381
531 381
532 381
533 381
534 381
535 381
536 381
537 381
538 381
539 381
540 381
541 381
542 381
543 381
544 381
545 381
546 381
547 381
548 381
549 381
550 381
551 381
552 381
553 381
554 381
555 381
556 381
557 381
558 381
559 381
560 381
561 381
562 381
563 381
564 381
565 381
566 381
567 381
568 381
569 381
570 381
571 381
572 381
573 381
574 381
575 381
576 381
577 381
578 381
579 381
580 381
581 381
582 381
583 381
584 381
585 381
586 381
587 381
588 381
589 381
590 381
591 381
592 381
593 381
594 381
595 381
596 381
597 381
598 381
599 381
530 382
531 382
532 382
533 382
534 382
535 382
536 382
537 382
538 382
539 382
540 382
541 382
542 382
543 382
544 382
545 382
546 382
547 382
548 382
549 382
550 382
551 382
552 382
553 382
554 382
555 382
556 382
557 382
558 382
559 382
560 382
561 382
562 382
563 382
564 382
565 382
566 382
567 382
568 382
569 382
570 382
571 382
572 382
573 382
574 382
575 382
576 382
577 382
578 382
579 382
580 382
581 382
582 382
583 382
584 382
585 382
586 382
587 382
588 382
589 382
590 382
591 382
592 382
593 382
594 382
595 382
596 382
597 382
598 382
599 382
530 383
531 383
532 383
533 383
534 383
535 383
536 383
537 383
538 383
539 383
540 383
541 383
542 383
543 383
544 383
545 383
546 383
547 383
548 383
549 383
550 383
551 383
552 383
553 383
554 383
555 383
556 383
557 383
558 383
559 383
560 383
561 383
562 383
563 383
564 383
565 383
566 383
567 383
568 383
569 383
570 383
571 383
572 383
573 383
574 383
575 383
576 383
577 383
578 383
579 383
580 383
581 383
582 383
583 383
584 383
585 383
586 383
587 383
588 383
589 383
590 383
591 383
592 383
593 383
594 383
595 383
596 383
597 383
598 383
599 383
530 384
531 384
532 384
533 384
534 384
535 384
536 384
537 384
538 384
539 384
540 384
541 384
542 384
543 384
544 384
545 384
546 384
547 384
548 384
549 384
550 384
551 384
552 384
553 384
554 384
555 384
556 384
557 384
558 384
559 384
560 384
561 384
562 384
563 384
564 384
565 384
566 384
567 384
568 384
569 384
570 384
571 384
572 384
573 384
574 384
575 384
576 384
577 384
578 384
579 384
580 384
581 384
582 384
583 384
584 384
585 384
586 384
587 384
588 384
589 384
590 384
591 384
592 384
593 384
594 384
595 384
596 384
597 384
598 384
599 384
