%%MatrixMarket matrix coordinate pattern general
599 384 5184
1 25
2 25
3 25
4 25
5 25
6 25
7 25
8 25
9 25
10 25
11 25
12 25
13 25
14 25
15 25
16 25
17 25
18 25
19 25
20 25
21 25
22 25
23 25
24 25
1 26
2 26
3 26
4 26
5 26
6 26
7 26
8 26
9 26
10 26
11 26
12 26
13 26
14 26
15 26
16 26
17 26
18 26
19 26
20 26
21 26
22 26
23 26
24 26
1 27
2 27
3 27
4 27
5 27
6 27
7 27
8 27
9 27
10 27
11 27
12 27
13 27
14 27
15 27
16 27
17 27
18 27
19 27
20 27
21 27
22 27
23 27
24 27
1 28
2 28
3 28
4 28
5 28
6 28
7 28
8 28
9 28
10 28
11 28
12 28
13 28
14 28
15 28
16 28
17 28
18 28
19 28
20 28
21 28
22 28
23 28
24 28
1 29
2 29
3 29
4 29
5 29
6 29
7 29
8 29
9 29
10 29
11 29
12 29
13 29
14 29
15 29
16 29
17 29
18 29
19 29
20 29
21 29
22 29
23 29
24 29
1 30
2 30
3 30
4 30
5 30
6 30
7 30
8 30
9 30
10 30
11 30
12 30
13 30
14 30
15 30
16 30
17 30
18 30
19 30
20 30
21 30
22 30
23 30
24 30
1 31
2 31
3 31
4 31
5 31
6 31
7 31
8 31
9 31
10 31
11 31
12 31
13 31
14 31
15 31
16 31
17 31
18 31
19 31
20 31
21 31
22 31
23 31
24 31
1 32
2 32
3 32
4 32
5 32
6 32
7 32
8 32
9 32
10 32
11 32
12 32
13 32
14 32
15 32
16 32
17 32
18 32
19 32
20 32
21 32
22 32
23 32
24 32
1 33
2 33
3 33
4 33
5 33
6 33
7 33
8 33
9 33
10 33
11 33
12 33
13 33
14 33
15 33
16 33
17 33
18 33
19 33
20 33
21 33
22 33
23 33
24 33
1 34
2 34
3 34
4 34
5 34
6 34
7 34
8 34
9 34
10 34
11 34
12 34
13 34
14 34
15 34
16 34
17 34
18 34
19 34
20 34
21 34
22 34
23 34
24 34
1 35
2 35
3 35
4 35
5 35
6 35
7 35
8 35
9 35
10 35
11 35
12 35
13 35
14 35
15 35
16 35
17 35
18 35
19 35
20 35
21 35
22 35
23 35
24 35
1 36
2 36
3 36
4 36
5 36
6 36
7 36
8 36
9 36
10 36
11 36
12 36
13 36
14 36
15 36
16 36
17 36
18 36
19 36
20 36
21 36
22 36
23 36
24 36
1 37
2 37
3 37
4 37
5 37
6 37
7 37
8 37
9 37
10 37
11 37
12 37
13 37
14 37
15 37
16 37
17 37
18 37
19 37
20 37
21 37
22 37
23 37
24 37
1 38
2 38
3 38
4 38
5 38
6 38
7 38
8 38
9 38
10 38
11 38
12 38
13 38
14 38
15 38
16 38
17 38
18 38
19 38
20 38
21 38
22 38
23 38
24 38
1 39
2 39
3 39
4 39
5 39
6 39
7 39
8 39
9 39
10 39
11 39
12 39
13 39
14 39
15 39
16 39
17 39
18 39
19 39
20 39
21 39
22 39
23 39
24 39
1 40
2 40
3 40
4 40
5 40
6 40
7 40
8 40
9 40
10 40
11 40
12 40
13 40
14 40
15 40
16 40
17 40
18 40
19 40
20 40
21 40
22 40
23 40
24 40
1 41
2 41
3 41
4 41
5 41
6 41
7 41
8 41
9 41
10 41
11 41
12 41
13 41
14 41
15 41
16 41
17 41
18 41
19 41
20 41
21 41
22 41
23 41
24 41
1 42
2 42
3 42
4 42
5 42
6 42
7 42
8 42
9 42
10 42
11 42
12 42
13 42
14 42
15 42
16 42
17 42
18 42
19 42
20 42
21 42
22 42
23 42
24 42
1 43
2 43
3 43
4 43
5 43
6 43
7 43
8 43
9 43
10 43
11 43
12 43
13 43
14 43
15 43
16 43
17 43
18 43
19 43
20 43
21 43
22 43
23 43
24 43
1 44
2 44
3 44
4 44
5 44
6 44
7 44
8 44
9 44
10 44
11 44
12 44
13 44
14 44
15 44
16 44
17 44
18 44
19 44
20 44
21 44
22 44
23 44
24 44
1 45
2 45
3 45
4 45
5 45
6 45
7 45
8 45
9 45
10 45
11 45
12 45
13 45
14 45
15 45
16 45
17 45
18 45
19 45
20 45
21 45
22 45
23 45
24 45
1 46
2 46
3 46
4 46
5 46
6 46
7 46
8 46
9 46
10 46
11 46
12 46
13 46
14 46
15 46
16 46
17 46
18 46
19 46
20 46
21 46
22 46
23 46
24 46
1 47
2 47
3 47
4 47
5 47
6 47
7 47
8 47
9 47
10 47
11 47
12 47
13 47
14 47
15 47
16 47
17 47
18 47
19 47
20 47
21 47
22 47
23 47
24 47
1 48
2 48
3 48
4 48
5 48
6 48
7 48
8 48
9 48
10 48
11 48
12 48
13 48
14 48
15 48
16 48
17 48
18 48
19 48
20 48
21 48
22 48
23 48
24 48
1 49
2 49
3 49
4 49
5 49
6 49
7 49
8 49
9 49
10 49
11 49
12 49
13 49
14 49
15 49
16 49
17 49
18 49
19 49
20 49
21 49
22 49
23 49
24 49
1 50
2 50
3 50
4 50
5 50
6 50
7 50
8 50
9 50
10 50
11 50
12 50
13 50
14 50
15 50
16 50
17 50
18 50
19 50
20 50
21 50
22 50
23 50
24 50
1 51
2 51
3 51
4 51
5 51
6 51
7 51
8 51
9 51
10 51
11 51
12 51
13 51
14 51
15 51
16 51
17 51
18 51
19 51
20 51
21 51
22 51
23 51
24 51
1 52
2 52
3 52
4 52
5 52
6 52
7 52
8 52
9 52
10 52
11 52
12 52
13 52
14 52
15 52
16 52
17 52
18 52
19 52
20 52
21 52
22 52
23 52
24 52
1 53
2 53
3 53
4 53
5 53
6 53
7 53
8 53
9 53
10 53
11 53
12 53
13 53
14 53
15 53
16 53
17 53
18 53
19 53
20 53
21 53
22 53
23 53
24 53
1 54
2 54
3 54
4 54
5 54
6 54
7 54
8 54
9 54
10 54
11 54
12 54
13 54
14 54
15 54
16 54
17 54
18 54
19 54
20 54
21 54
22 54
23 54
24 54
1 55
2 55
3 55
4 55
5 55
6 55
7 55
8 55
9 55
10 55
11 55
12 55
13 55
14 55
15 55
16 55
17 55
18 55
19 55
20 55
21 55
22 55
23 55
24 55
1 56
2 56
3 56
4 56
5 56
6 56
7 56
8 56
9 56
10 56
11 56
12 56
13 56
14 56
15 56
16 56
17 56
18 56
19 56
20 56
21 56
22 56
23 56
24 56
1 57
2 57
3 57
4 57
5 57
6 57
7 57
8 57
9 57
10 57
11 57
12 57
13 57
14 57
15 57
16 57
17 57
18 57
19 57
20 57
21 57
22 57
23 57
24 57
1 58
2 58
3 58
4 58
5 58
6 58
7 58
8 58
9 58
10 58
11 58
12 58
13 58
14 58
15 58
16 58
17 58
18 58
19 58
20 58
21 58
22 58
23 58
24 58
1 59
2 59
3 59
4 59
5 59
6 59
7 59
8 59
9 59
10 59
11 59
12 59
13 59
14 59
15 59
16 59
17 59
18 59
19 59
20 59
21 59
22 59
23 59
24 59
1 60
2 60
3 60
4 60
5 60
6 60
7 60
8 60
9 60
10 60
11 60
12 60
13 60
14 60
15 60
16 60
17 60
18 60
19 60
20 60
21 60
22 60
23 60
24 60
1 61
2 61
3 61
4 61
5 61
6 61
7 61
8 61
9 61
10 61
11 61
12 61
13 61
14 61
15 61
16 61
17 61
18 61
19 61
20 61
21 61
22 61
23 61
24 61
1 62
2 62
3 62
4 62
5 62
6 62
7 62
8 62
9 62
10 62
11 62
12 62
13 62
14 62
15 62
16 62
17 62
18 62
19 62
20 62
21 62
22 62
23 62
24 62
1 63
2 63
3 63
4 63
5 63
6 63
7 63
8 63
9 63
10 63
11 63
12 63
13 63
14 63
15 63
16 63
17 63
18 63
19 63
20 63
21 63
22 63
23 63
24 63
1 64
2 64
3 64
4 64
5 64
6 64
7 64
8 64
9 64
10 64
11 64
12 64
13 64
14 64
15 64
16 64
17 64
18 64
19 64
20 64
21 64
22 64
23 64
24 64
1 65
2 65
3 65
4 65
5 65
6 65
7 65
8 65
9 65
10 65
11 65
12 65
13 65
14 65
15 65
16 65
17 65
18 65
19 65
20 65
21 65
22 65
23 65
24 65
1 66
2 66
3 66
4 66
5 66
6 66
7 66
8 66
9 66
10 66
11 66
12 66
13 66
14 66
15 66
16 66
17 66
18 66
19 66
20 66
21 66
22 66
23 66
24 66
1 67
2 67
3 67
4 67
5 67
6 67
7 67
8 67
9 67
10 67
11 67
12 67
13 67
14 67
15 67
16 67
17 67
18 67
19 67
20 67
21 67
22 67
23 67
24 67
1 68
2 68
3 68
4 68
5 68
6 68
7 68
8 68
9 68
10 68
11 68
12 68
13 68
14 68
15 68
16 68
17 68
18 68
19 68
20 68
21 68
22 68
23 68
24 68
1 69
2 69
3 69
4 69
5 69
6 69
7 69
8 69
9 69
10 69
11 69
12 69
13 69
14 69
15 69
16 69
17 69
18 69
19 69
20 69
21 69
22 69
23 69
24 69
1 70
2 70
3 70
4 70
5 70
6 70
7 70
8 70
9 70
10 70
11 70
12 70
13 70
14 70
15 70
16 70
17 70
18 70
19 70
20 70
21 70
22 70
23 70
24 70
1 71
2 71
3 71
4 71
5 71
6 71
7 71
8 71
9 71
10 71
11 71
12 71
13 71
14 71
15 71
16 71
17 71
18 71
19 71
20 71
21 71
22 71
23 71
24 71
1 72
2 72
3 72
4 72
5 72
6 72
7 72
8 72
9 72
10 72
11 72
12 72
13 72
14 72
15 72
16 72
17 72
18 72
19 72
20 72
21 72
22 72
23 72
24 72
1 73
2 73
3 73
4 73
5 73
6 73
7 73
8 73
9 73
10 73
11 73
12 73
13 73
14 73
15 73
16 73
17 73
18 73
19 73
20 73
21 73
22 73
23 73
24 73
1 74
2 74
3 74
4 74
5 74
6 74
7 74
8 74
9 74
10 74
11 74
12 74
13 74
14 74
15 74
16 74
17 74
18 74
19 74
20 74
21 74
22 74
23 74
24 74
1 75
2 75
3 75
4 75
5 75
6 75
7 75
8 75
9 75
10 75
11 75
12 75
13 75
14 75
15 75
16 75
17 75
18 75
19 75
20 75
21 75
22 75
23 75
24 75
1 76
2 76
3 76
4 76
5 76
6 76
7 76
8 76
9 76
10 76
11 76
12 76
13 76
14 76
15 76
16 76
17 76
18 76
19 76
20 76
21 76
22 76
23 76
24 76
1 77
2 77
3 77
4 77
5 77
6 77
7 77
8 77
9 77
10 77
11 77
12 77
13 77
14 77
15 77
16 77
17 77
18 77
19 77
20 77
21 77
22 77
23 77
24 77
1 78
2 78
3 78
4 78
5 78
6 78
7 78
8 78
9 78
10 78
11 78
12 78
13 78
14 78
15 78
16 78
17 78
18 78
19 78
20 78
21 78
22 78
23 78
24 78
1 79
2 79
3 79
4 79
5 79
6 79
7 79
8 79
9 79
10 79
11 79
12 79
13 79
14 79
15 79
16 79
17 79
18 79
19 79
20 79
21 79
22 79
23 79
24 79
1 80
2 80
3 80
4 80
5 80
6 80
7 80
8 80
9 80
10 80
11 80
12 80
13 80
14 80
15 80
16 80
17 80
18 80
19 80
20 80
21 80
22 80
23 80
24 80
1 81
2 81
3 81
4 81
5 81
6 81
7 81
8 81
9 81
10 81
11 81
12 81
13 81
14 81
15 81
16 81
17 81
18 81
19 81
20 81
21 81
22 81
23 81
24 81
1 82
2 82
3 82
4 82
5 82
6 82
7 82
8 82
9 82
10 82
11 82
12 82
13 82
14 82
15 82
16 82
17 82
18 82
19 82
20 82
21 82
22 82
23 82
24 82
1 83
2 83
3 83
4 83
5 83
6 83
7 83
8 83
9 83
10 83
11 83
12 83
13 83
14 83
15 83
16 83
17 83
18 83
19 83
20 83
21 83
22 83
23 83
24 83
1 84
2 84
3 84
4 84
5 84
6 84
7 84
8 84
9 84
10 84
11 84
12 84
13 84
14 84
15 84
16 84
17 84
18 84
19 84
20 84
21 84
22 84
23 84
24 84
1 85
2 85
3 85
4 85
5 85
6 85
7 85
8 85
9 85
10 85
11 85
12 85
13 85
14 85
15 85
16 85
17 85
18 85
19 85
20 85
21 85
22 85
23 85
24 85
1 86
2 86
3 86
4 86
5 86
6 86
7 86
8 86
9 86
10 86
11 86
12 86
13 86
14 86
15 86
16 86
17 86
18 86
19 86
20 86
21 86
22 86
23 86
24 86
1 87
2 87
3 87
4 87
5 87
6 87
7 87
8 87
9 87
10 87
11 87
12 87
13 87
14 87
15 87
16 87
17 87
18 87
19 87
20 87
21 87
22 87
23 87
24 87
1 88
2 88
3 88
4 88
5 88
6 88
7 88
8 88
9 88
10 88
11 88
12 88
13 88
14 88
15 88
16 88
17 88
18 88
19 88
20 88
21 88
22 88
23 88
24 88
1 89
2 89
3 89
4 89
5 89
6 89
7 89
8 89
9 89
10 89
11 89
12 89
13 89
14 89
15 89
16 89
17 89
18 89
19 89
20 89
21 89
22 89
23 89
24 89
1 90
2 90
3 90
4 90
5 90
6 90
7 90
8 90
9 90
10 90
11 90
12 90
13 90
14 90
15 90
16 90
17 90
18 90
19 90
20 90
21 90
22 90
23 90
24 90
1 91
2 91
3 91
4 91
5 91
6 91
7 91
8 91
9 91
10 91
11 91
12 91
13 91
14 91
15 91
16 91
17 91
18 91
19 91
20 91
21 91
22 91
23 91
24 91
1 92
2 92
3 92
4 92
5 92
6 92
7 92
8 92
9 92
10 92
11 92
12 92
13 92
14 92
15 92
16 92
17 92
18 92
19 92
20 92
21 92
22 92
23 92
24 92
1 93
2 93
3 93
4 93
5 93
6 93
7 93
8 93
9 93
10 93
11 93
12 93
13 93
14 93
15 93
16 93
17 93
18 93
19 93
20 93
21 93
22 93
23 93
24 93
1 94
2 94
3 94
4 94
5 94
6 94
7 94
8 94
9 94
10 94
11 94
12 94
13 94
14 94
15 94
16 94
17 94
18 94
19 94
20 94
21 94
22 94
23 94
24 94
1 95
2 95
3 95
4 95
5 95
6 95
7 95
8 95
9 95
10 95
11 95
12 95
13 95
14 95
15 95
16 95
17 95
18 95
19 95
20 95
21 95
22 95
23 95
24 95
1 96
2 96
3 96
4 96
5 96
6 96
7 96
8 96
9 96
10 96
11 96
12 96
13 96
14 96
15 96
16 96
17 96
18 96
19 96
20 96
21 96
22 96
23 96
24 96
175 121
176 121
177 121
178 121
179 121
180 121
181 121
182 121
183 121
184 121
185 121
186 121
187 121
188 121
189 121
190 121
191 121
192 121
193 121
194 121
195 121
196 121
197 121
198 121
175 122
176 122
177 122
178 122
179 122
180 122
181 122
182 122
183 122
184 122
185 122
186 122
187 122
188 122
189 122
190 122
191 122
192 122
193 122
194 122
195 122
196 122
197 122
198 122
175 123
176 123
177 123
178 123
179 123
180 123
181 123
182 123
183 123
184 123
185 123
186 123
187 123
188 123
189 123
190 123
191 123
192 123
193 123
194 123
195 123
196 123
197 123
198 123
175 124
176 124
177 124
178 124
179 124
180 124
181 124
182 124
183 124
184 124
185 124
186 124
187 124
188 124
189 124
190 124
191 124
192 124
193 124
194 124
195 124
196 124
197 124
198 124
175 125
176 125
177 125
178 125
179 125
180 125
181 125
182 125
183 125
184 125
185 125
186 125
187 125
188 125
189 125
190 125
191 125
192 125
193 125
194 125
195 125
196 125
197 125
198 125
175 126
176 126
177 126
178 126
179 126
180 126
181 126
182 126
183 126
184 126
185 126
186 126
187 126
188 126
189 126
190 126
191 126
192 126
193 126
194 126
195 126
196 126
197 126
198 126
175 127
176 127
177 127
178 127
179 127
180 127
181 127
182 127
183 127
184 127
185 127
186 127
187 127
188 127
189 127
190 127
191 127
192 127
193 127
194 127
195 127
196 127
197 127
198 127
175 128
176 128
177 128
178 128
179 128
180 128
181 128
182 128
183 128
184 128
185 128
186 128
187 128
188 128
189 128
190 128
191 128
192 128
193 128
194 128
195 128
196 128
197 128
198 128
175 129
176 129
177 129
178 129
179 129
180 129
181 129
182 129
183 129
184 129
185 129
186 129
187 129
188 129
189 129
190 129
191 129
192 129
193 129
194 129
195 129
196 129
197 129
198 129
175 130
176 130
177 130
178 130
179 130
180 130
181 130
182 130
183 130
184 130
185 130
186 130
187 130
188 130
189 130
190 130
191 130
192 130
193 130
194 130
195 130
196 130
197 130
198 130
175 131
176 131
177 131
178 131
179 131
180 131
181 131
182 131
183 131
184 131
185 131
186 131
187 131
188 131
189 131
190 131
191 131
192 131
193 131
194 131
195 131
196 131
197 131
198 131
175 132
176 132
177 132
178 132
179 132
180 132
181 132
182 132
183 132
184 132
185 132
186 132
187 132
188 132
189 132
190 132
191 132
192 132
193 132
194 132
195 132
196 132
197 132
198 132
175 133
176 133
177 133
178 133
179 133
180 133
181 133
182 133
183 133
184 133
185 133
186 133
187 133
188 133
189 133
190 133
191 133
192 133
193 133
194 133
195 133
196 133
197 133
198 133
175 134
176 134
177 134
178 134
179 134
180 134
181 134
182 134
183 134
184 134
185 134
186 134
187 134
188 134
189 134
190 134
191 134
192 134
193 134
194 134
195 134
196 134
197 134
198 134
175 135
176 135
177 135
178 135
179 135
180 135
181 135
182 135
183 135
184 135
185 135
186 135
187 135
188 135
189 135
190 135
191 135
192 135
193 135
194 135
195 135
196 135
197 135
198 135
175 136
176 136
177 136
178 136
179 136
180 136
181 136
182 136
183 136
184 136
185 136
186 136
187 136
188 136
189 136
190 136
191 136
192 136
193 136
194 136
195 136
196 136
197 136
198 136
175 137
176 137
177 137
178 137
179 137
180 137
181 137
182 137
183 137
184 137
185 137
186 137
187 137
188 137
189 137
190 137
191 137
192 137
193 137
194 137
195 137
196 137
197 137
198 137
175 138
176 138
177 138
178 138
179 138
180 138
181 138
182 138
183 138
184 138
185 138
186 138
187 138
188 138
189 138
190 138
191 138
192 138
193 138
194 138
195 138
196 138
197 138
198 138
175 139
176 139
177 139
178 139
179 139
180 139
181 139
182 139
183 139
184 139
185 139
186 139
187 139
188 139
189 139
190 139
191 139
192 139
193 139
194 139
195 139
196 139
197 139
198 139
175 140
176 140
177 140
178 140
179 140
180 140
181 140
182 140
183 140
184 140
185 140
186 140
187 140
188 140
189 140
190 140
191 140
192 140
193 140
194 140
195 140
196 140
197 140
198 140
175 141
176 141
177 141
178 141
179 141
180 141
181 141
182 141
183 141
184 141
185 141
186 141
187 141
188 141
189 141
190 141
191 141
192 141
193 141
194 141
195 141
196 141
197 141
198 141
175 142
176 142
177 142
178 142
179 142
180 142
181 142
182 142
183 142
184 142
185 142
186 142
187 142
188 142
189 142
190 142
191 142
192 142
193 142
194 142
195 142
196 142
197 142
198 142
175 143
176 143
177 143
178 143
179 143
180 143
181 143
182 143
183 143
184 143
185 143
186 143
187 143
188 143
189 143
190 143
191 143
192 143
193 143
194 143
195 143
196 143
197 143
198 143
175 144
176 144
177 144
178 144
179 144
180 144
181 144
182 144
183 144
184 144
185 144
186 144
187 144
188 144
189 144
190 144
191 144
192 144
193 144
194 144
195 144
196 144
197 144
198 144
175 145
176 145
177 145
178 145
179 145
180 145
181 145
182 145
183 145
184 145
185 145
186 145
187 145
188 145
189 145
190 145
191 145
192 145
193 145
194 145
195 145
196 145
197 145
198 145
175 146
176 146
177 146
178 146
179 146
180 146
181 146
182 146
183 146
184 146
185 146
186 146
187 146
188 146
189 146
190 146
191 146
192 146
193 146
194 146
195 146
196 146
197 146
198 146
175 147
176 147
177 147
178 147
179 147
180 147
181 147
182 147
183 147
184 147
185 147
186 147
187 147
188 147
189 147
190 147
191 147
192 147
193 147
194 147
195 147
196 147
197 147
198 147
175 148
176 148
177 148
178 148
179 148
180 148
181 148
182 148
183 148
184 148
185 148
186 148
187 148
188 148
189 148
190 148
191 148
192 148
193 148
194 148
195 148
196 148
197 148
198 148
175 149
176 149
177 149
178 149
179 149
180 149
181 149
182 149
183 149
184 149
185 149
186 149
187 149
188 149
189 149
190 149
191 149
192 149
193 149
194 149
195 149
196 149
197 149
198 149
175 150
176 150
177 150
178 150
179 150
180 150
181 150
182 150
183 150
184 150
185 150
186 150
187 150
188 150
189 150
190 150
191 150
192 150
193 150
194 150
195 150
196 150
197 150
198 150
175 151
176 151
177 151
178 151
179 151
180 151
181 151
182 151
183 151
184 151
185 151
186 151
187 151
188 151
189 151
190 151
191 151
192 151
193 151
194 151
195 151
196 151
197 151
198 151
175 152
176 152
177 152
178 152
179 152
180 152
181 152
182 152
183 152
184 152
185 152
186 152
187 152
188 152
189 152
190 152
191 152
192 152
193 152
194 152
195 152
196 152
197 152
198 152
175 153
176 153
177 153
178 153
179 153
180 153
181 153
182 153
183 153
184 153
185 153
186 153
187 153
188 153
189 153
190 153
191 153
192 153
193 153
194 153
195 153
196 153
197 153
198 153
175 154
176 154
177 154
178 154
179 154
180 154
181 154
182 154
183 154
184 154
185 154
186 154
187 154
188 154
189 154
190 154
191 154
192 154
193 154
194 154
195 154
196 154
197 154
198 154
175 155
176 155
177 155
178 155
179 155
180 155
181 155
182 155
183 155
184 155
185 155
186 155
187 155
188 155
189 155
190 155
191 155
192 155
193 155
194 155
195 155
196 155
197 155
198 155
175 156
176 156
177 156
178 156
179 156
180 156
181 156
182 156
183 156
184 156
185 156
186 156
187 156
188 156
189 156
190 156
191 156
192 156
193 156
194 156
195 156
196 156
197 156
198 156
175 157
176 157
177 157
178 157
179 157
180 157
181 157
182 157
183 157
184 157
185 157
186 157
187 157
188 157
189 157
190 157
191 157
192 157
193 157
194 157
195 157
196 157
197 157
198 157
175 158
176 158
177 158
178 158
179 158
180 158
181 158
182 158
183 158
184 158
185 158
186 158
187 158
188 158
189 158
190 158
191 158
192 158
193 158
194 158
195 158
196 158
197 158
198 158
175 159
176 159
177 159
178 159
179 159
180 159
181 159
182 159
183 159
184 159
185 159
186 159
187 159
188 159
189 159
190 159
191 159
192 159
193 159
194 159
195 159
196 159
197 159
198 159
175 160
176 160
177 160
178 160
179 160
180 160
181 160
182 160
183 160
184 160
185 160
186 160
187 160
188 160
189 160
190 160
191 160
192 160
193 160
194 160
195 160
196 160
197 160
198 160
175 161
176 161
177 161
178 161
179 161
180 161
181 161
182 161
183 161
184 161
185 161
186 161
187 161
188 161
189 161
190 161
191 161
192 161
193 161
194 161
195 161
196 161
197 161
198 161
175 162
176 162
177 162
178 162
179 162
180 162
181 162
182 162
183 162
184 162
185 162
186 162
187 162
188 162
189 162
190 162
191 162
192 162
193 162
194 162
195 162
196 162
197 162
198 162
175 163
176 163
177 163
178 163
179 163
180 163
181 163
182 163
183 163
184 163
185 163
186 163
187 163
188 163
189 163
190 163
191 163
192 163
193 163
194 163
195 163
196 163
197 163
198 163
175 164
176 164
177 164
178 164
179 164
180 164
181 164
182 164
183 164
184 164
185 164
186 164
187 164
188 164
189 164
190 164
191 164
192 164
193 164
194 164
195 164
196 164
197 164
198 164
175 165
176 165
177 165
178 165
179 165
180 165
181 165
182 165
183 165
184 165
185 165
186 165
187 165
188 165
189 165
190 165
191 165
192 165
193 165
194 165
195 165
196 165
197 165
198 165
175 166
176 166
177 166
178 166
179 166
180 166
181 166
182 166
183 166
184 166
185 166
186 166
187 166
188 166
189 166
190 166
191 166
192 166
193 166
194 166
195 166
196 166
197 166
198 166
175 167
176 167
177 167
178 167
179 167
180 167
181 167
182 167
183 167
184 167
185 167
186 167
187 167
188 167
189 167
190 167
191 167
192 167
193 167
194 167
195 167
196 167
197 167
198 167
175 168
176 168
177 168
178 168
179 168
180 168
181 168
182 168
183 168
184 168
185 168
186 168
187 168
188 168
189 168
190 168
191 168
192 168
193 168
194 168
195 168
196 168
197 168
198 168
175 169
176 169
177 169
178 169
179 169
180 169
181 169
182 169
183 169
184 169
185 169
186 169
187 169
188 169
189 169
190 169
191 169
192 169
193 169
194 169
195 169
196 169
197 169
198 169
175 170
176 170
177 170
178 170
179 170
180 170
181 170
182 170
183 170
184 170
185 170
186 170
187 170
188 170
189 170
190 170
191 170
192 170
193 170
194 170
195 170
196 170
197 170
198 170
175 171
176 171
177 171
178 171
179 171
180 171
181 171
182 171
183 171
184 171
185 171
186 171
187 171
188 171
189 171
190 171
191 171
192 171
193 171
194 171
195 171
196 171
197 171
198 171
175 172
176 172
177 172
178 172
179 172
180 172
181 172
182 172
183 172
184 172
185 172
186 172
187 172
188 172
189 172
190 172
191 172
192 172
193 172
194 172
195 172
196 172
197 172
198 172
175 173
176 173
177 173
178 173
179 173
180 173
181 173
182 173
183 173
184 173
185 173
186 173
187 173
188 173
189 173
190 173
191 173
192 173
193 173
194 173
195 173
196 173
197 173
198 173
175 174
176 174
177 174
178 174
179 174
180 174
181 174
182 174
183 174
184 174
185 174
186 174
187 174
188 174
189 174
190 174
191 174
192 174
193 174
194 174
195 174
196 174
197 174
198 174
175 175
176 175
177 175
178 175
179 175
180 175
181 175
182 175
183 175
184 175
185 175
186 175
187 175
188 175
189 175
190 175
191 175
192 175
193 175
194 175
195 175
196 175
197 175
198 175
175 176
176 176
177 176
178 176
179 176
180 176
181 176
182 176
183 176
184 176
185 176
186 176
187 176
188 176
189 176
190 176
191 176
192 176
193 176
194 176
195 176
196 176
197 176
198 176
175 177
176 177
177 177
178 177
179 177
180 177
181 177
182 177
183 177
184 177
185 177
186 177
187 177
188 177
189 177
190 177
191 177
192 177
193 177
194 177
195 177
196 177
197 177
198 177
175 178
176 178
177 178
178 178
179 178
180 178
181 178
182 178
183 178
184 178
185 178
186 178
187 178
188 178
189 178
190 178
191 178
192 178
193 178
194 178
195 178
196 178
197 178
198 178
175 179
176 179
177 179
178 179
179 179
180 179
181 179
182 179
183 179
184 179
185 179
186 179
187 179
188 179
189 179
190 179
191 179
192 179
193 179
194 179
195 179
196 179
197 179
198 179
175 180
176 180
177 180
178 180
179 180
180 180
181 180
182 180
183 180
184 180
185 180
186 180
187 180
188 180
189 180
190 180
191 180
192 180
193 180
194 180
195 180
196 180
197 180
198 180
175 181
176 181
177 181
178 181
179 181
180 181
181 181
182 181
183 181
184 181
185 181
186 181
187 181
188 181
189 181
190 181
191 181
192 181
193 181
194 181
195 181
196 181
197 181
198 181
175 182
176 182
177 182
178 182
179 182
180 182
181 182
182 182
183 182
184 182
185 182
186 182
187 182
188 182
189 182
190 182
191 182
192 182
193 182
194 182
195 182
196 182
197 182
198 182
175 183
176 183
177 183
178 183
179 183
180 183
181 183
182 183
183 183
184 183
185 183
186 183
187 183
188 183
189 183
190 183
191 183
192 183
193 183
194 183
195 183
196 183
197 183
198 183
175 184
176 184
177 184
178 184
179 184
180 184
181 184
182 184
183 184
184 184
185 184
186 184
187 184
188 184
189 184
190 184
191 184
192 184
193 184
194 184
195 184
196 184
197 184
198 184
175 185
176 185
177 185
178 185
179 185
180 185
181 185
182 185
183 185
184 185
185 185
186 185
187 185
188 185
189 185
190 185
191 185
192 185
193 185
194 185
195 185
196 185
197 185
198 185
175 186
176 186
177 186
178 186
179 186
180 186
181 186
182 186
183 186
184 186
185 186
186 186
187 186
188 186
189 186
190 186
191 186
192 186
193 186
194 186
195 186
196 186
197 186
198 186
175 187
176 187
177 187
178 187
179 187
180 187
181 187
182 187
183 187
184 187
185 187
186 187
187 187
188 187
189 187
190 187
191 187
192 187
193 187
194 187
195 187
196 187
197 187
198 187
175 188
176 188
177 188
178 188
179 188
180 188
181 188
182 188
183 188
184 188
185 188
186 188
187 188
188 188
189 188
190 188
191 188
192 188
193 188
194 188
195 188
196 188
197 188
198 188
175 189
176 189
177 189
178 189
179 189
180 189
181 189
182 189
183 189
184 189
185 189
186 189
187 189
188 189
189 189
190 189
191 189
192 189
193 189
194 189
195 189
196 189
197 189
198 189
175 190
176 190
177 190
178 190
179 190
180 190
181 190
182 190
183 190
184 190
185 190
186 190
187 190
188 190
189 190
190 190
191 190
192 190
193 190
194 190
195 190
196 190
197 190
198 190
175 191
176 191
177 191
178 191
179 191
180 191
181 191
182 191
183 191
184 191
185 191
186 191
187 191
188 191
189 191
190 191
191 191
192 191
193 191
194 191
195 191
196 191
197 191
198 191
175 192
176 192
177 192
178 192
179 192
180 192
181 192
182 192
183 192
184 192
185 192
186 192
187 192
188 192
189 192
190 192
191 192
192 192
193 192
194 192
195 192
196 192
197 192
198 192
349 217
350 217
351 217
352 217
353 217
354 217
355 217
356 217
357 217
358 217
359 217
360 217
361 217
362 217
363 217
364 217
365 217
366 217
367 217
368 217
369 217
370 217
371 217
372 217
349 218
350 218
351 218
352 218
353 218
354 218
355 218
356 218
357 218
358 218
359 218
360 218
361 218
362 218
363 218
364 218
365 218
366 218
367 218
368 218
369 218
370 218
371 218
372 218
349 219
350 219
351 219
352 219
353 219
354 219
355 219
356 219
357 219
358 219
359 219
360 219
361 219
362 219
363 219
364 219
365 219
366 219
367 219
368 219
369 219
370 219
371 219
372 219
349 220
350 220
351 220
352 220
353 220
354 220
355 220
356 220
357 220
358 220
359 220
360 220
361 220
362 220
363 220
364 220
365 220
366 220
367 220
368 220
369 220
370 220
371 220
372 220
349 221
350 221
351 221
352 221
353 221
354 221
355 221
356 221
357 221
358 221
359 221
360 221
361 221
362 221
363 221
364 221
365 221
366 221
367 221
368 221
369 221
370 221
371 221
372 221
349 222
350 222
351 222
352 222
353 222
354 222
355 222
356 222
357 222
358 222
359 222
360 222
361 222
362 222
363 222
364 222
365 222
366 222
367 222
368 222
369 222
370 222
371 222
372 222
349 223
350 223
351 223
352 223
353 223
354 223
355 223
356 223
357 223
358 223
359 223
360 223
361 223
362 223
363 223
364 223
365 223
366 223
367 223
368 223
369 223
370 223
371 223
372 223
349 224
350 224
351 224
352 224
353 224
354 224
355 224
356 224
357 224
358 224
359 224
360 224
361 224
362 224
363 224
364 224
365 224
366 224
367 224
368 224
369 224
370 224
371 224
372 224
349 225
350 225
351 225
352 225
353 225
354 225
355 225
356 225
357 225
358 225
359 225
360 225
361 225
362 225
363 225
364 225
365 225
366 225
367 225
368 225
369 225
370 225
371 225
372 225
349 226
350 226
351 226
352 226
353 226
354 226
355 226
356 226
357 226
358 226
359 226
360 226
361 226
362 226
363 226
364 226
365 226
366 226
367 226
368 226
369 226
370 226
371 226
372 226
349 227
350 227
351 227
352 227
353 227
354 227
355 227
356 227
357 227
358 227
359 227
360 227
361 227
362 227
363 227
364 227
365 227
366 227
367 227
368 227
369 227
370 227
371 227
372 227
349 228
350 228
351 228
352 228
353 228
354 228
355 228
356 228
357 228
358 228
359 228
360 228
361 228
362 228
363 228
364 228
365 228
366 228
367 228
368 228
369 228
370 228
371 228
372 228
349 229
350 229
351 229
352 229
353 229
354 229
355 229
356 229
357 229
358 229
359 229
360 229
361 229
362 229
363 229
364 229
365 229
366 229
367 229
368 229
369 229
370 229
371 229
372 229
349 230
350 230
351 230
352 230
353 230
354 230
355 230
356 230
357 230
358 230
359 230
360 230
361 230
362 230
363 230
364 230
365 230
366 230
367 230
368 230
369 230
370 230
371 230
372 230
349 231
350 231
351 231
352 231
353 231
354 231
355 231
356 231
357 231
358 231
359 231
360 231
361 231
362 231
363 231
364 231
365 231
366 231
367 231
368 231
369 231
370 231
371 231
372 231
349 232
350 232
351 232
352 232
353 232
354 232
355 232
356 232
357 232
358 232
359 232
360 232
361 232
362 232
363 232
364 232
365 232
366 232
367 232
368 232
369 232
370 232
371 232
372 232
349 233
350 233
351 233
352 233
353 233
354 233
355 233
356 233
357 233
358 233
359 233
360 233
361 233
362 233
363 233
364 233
365 233
366 233
367 233
368 233
369 233
370 233
371 233
372 233
349 234
350 234
351 234
352 234
353 234
354 234
355 234
356 234
357 234
358 234
359 234
360 234
361 234
362 234
363 234
364 234
365 234
366 234
367 234
368 234
369 234
370 234
371 234
372 234
349 235
350 235
351 235
352 235
353 235
354 235
355 235
356 235
357 235
358 235
359 235
360 235
361 235
362 235
363 235
364 235
365 235
366 235
367 235
368 235
369 235
370 235
371 235
372 235
349 236
350 236
351 236
352 236
353 236
354 236
355 236
356 236
357 236
358 236
359 236
360 236
361 236
362 236
363 236
364 236
365 236
366 236
367 236
368 236
369 236
370 236
371 236
372 236
349 237
350 237
351 237
352 237
353 237
354 237
355 237
356 237
357 237
358 237
359 237
360 237
361 237
362 237
363 237
364 237
365 237
366 237
367 237
368 237
369 237
370 237
371 237
372 237
349 238
350 238
351 238
352 238
353 238
354 238
355 238
356 238
357 238
358 238
359 238
360 238
361 238
362 238
363 238
364 238
365 238
366 238
367 238
368 238
369 238
370 238
371 238
372 238
349 239
350 239
351 239
352 239
353 239
354 239
355 239
356 239
357 239
358 239
359 239
360 239
361 239
362 239
363 239
364 239
365 239
366 239
367 239
368 239
369 239
370 239
371 239
372 239
349 240
350 240
351 240
352 240
353 240
354 240
355 240
356 240
357 240
358 240
359 240
360 240
361 240
362 240
363 240
364 240
365 240
366 240
367 240
368 240
369 240
370 240
371 240
372 240
349 241
350 241
351 241
352 241
353 241
354 241
355 241
356 241
357 241
358 241
359 241
360 241
361 241
362 241
363 241
364 241
365 241
366 241
367 241
368 241
369 241
370 241
371 241
372 241
349 242
350 242
351 242
352 242
353 242
354 242
355 242
356 242
357 242
358 242
359 242
360 242
361 242
362 242
363 242
364 242
365 242
366 242
367 242
368 242
369 242
370 242
371 242
372 242
349 243
350 243
351 243
352 243
353 243
354 243
355 243
356 243
357 243
358 243
359 243
360 243
361 243
362 243
363 243
364 243
365 243
366 243
367 243
368 243
369 243
370 243
371 243
372 243
349 244
350 244
351 244
352 244
353 244
354 244
355 244
356 244
357 244
358 244
359 244
360 244
361 244
362 244
363 244
364 244
365 244
366 244
367 244
368 244
369 244
370 244
371 244
372 244
349 245
350 245
351 245
352 245
353 245
354 245
355 245
356 245
357 245
358 245
359 245
360 245
361 245
362 245
363 245
364 245
365 245
366 245
367 245
368 245
369 245
370 245
371 245
372 245
349 246
350 246
351 246
352 246
353 246
354 246
355 246
356 246
357 246
358 246
359 246
360 246
361 246
362 246
363 246
364 246
365 246
366 246
367 246
368 246
369 246
370 246
371 246
372 246
349 247
350 247
351 247
352 247
353 247
354 247
355 247
356 247
357 247
358 247
359 247
360 247
361 247
362 247
363 247
364 247
365 247
366 247
367 247
368 247
369 247
370 247
371 247
372 247
349 248
350 248
351 248
352 248
353 248
354 248
355 248
356 248
357 248
358 248
359 248
360 248
361 248
362 248
363 248
364 248
365 248
366 248
367 248
368 248
369 248
370 248
371 248
372 248
349 249
350 249
351 249
352 249
353 249
354 249
355 249
356 249
357 249
358 249
359 249
360 249
361 249
362 249
363 249
364 249
365 249
366 249
367 249
368 249
369 249
370 249
371 249
372 249
349 250
350 250
351 250
352 250
353 250
354 250
355 250
356 250
357 250
358 250
359 250
360 250
361 250
362 250
363 250
364 250
365 250
366 250
367 250
368 250
369 250
370 250
371 250
372 250
349 251
350 251
351 251
352 251
353 251
354 251
355 251
356 251
357 251
358 251
359 251
360 251
361 251
362 251
363 251
364 251
365 251
366 251
367 251
368 251
369 251
370 251
371 251
372 251
349 252
350 252
351 252
352 252
353 252
354 252
355 252
356 252
357 252
358 252
359 252
360 252
361 252
362 252
363 252
364 252
365 252
366 252
367 252
368 252
369 252
370 252
371 252
372 252
349 253
350 253
351 253
352 253
353 253
354 253
355 253
356 253
357 253
358 253
359 253
360 253
361 253
362 253
363 253
364 253
365 253
366 253
367 253
368 253
369 253
370 253
371 253
372 253
349 254
350 254
351 254
352 254
353 254
354 254
355 254
356 254
357 254
358 254
359 254
360 254
361 254
362 254
363 254
364 254
365 254
366 254
367 254
368 254
369 254
370 254
371 254
372 254
349 255
350 255
351 255
352 255
353 255
354 255
355 255
356 255
357 255
358 255
359 255
360 255
361 255
362 255
363 255
364 255
365 255
366 255
367 255
368 255
369 255
370 255
371 255
372 255
349 256
350 256
351 256
352 256
353 256
354 256
355 256
356 256
357 256
358 256
359 256
360 256
361 256
362 256
363 256
364 256
365 256
366 256
367 256
368 256
369 256
370 256
371 256
372 256
349 257
350 257
351 257
352 257
353 257
354 257
355 257
356 257
357 257
358 257
359 257
360 257
361 257
362 257
363 257
364 257
365 257
366 257
367 257
368 257
369 257
370 257
371 257
372 257
349 258
350 258
351 258
352 258
353 258
354 258
355 258
356 258
357 258
358 258
359 258
360 258
361 258
362 258
363 258
364 258
365 258
366 258
367 258
368 258
369 258
370 258
371 258
372 258
349 259
350 259
351 259
352 259
353 259
354 259
355 259
356 259
357 259
358 259
359 259
360 259
361 259
362 259
363 259
364 259
365 259
366 259
367 259
368 259
369 259
370 259
371 259
372 259
349 260
350 260
351 260
352 260
353 260
354 260
355 260
356 260
357 260
358 260
359 260
360 260
361 260
362 260
363 260
364 260
365 260
366 260
367 260
368 260
369 260
370 260
371 260
372 260
349 261
350 261
351 261
352 261
353 261
354 261
355 261
356 261
357 261
358 261
359 261
360 261
361 261
362 261
363 261
364 261
365 261
366 261
367 261
368 261
369 261
370 261
371 261
372 261
349 262
350 262
351 262
352 262
353 262
354 262
355 262
356 262
357 262
358 262
359 262
360 262
361 262
362 262
363 262
364 262
365 262
366 262
367 262
368 262
369 262
370 262
371 262
372 262
349 263
350 263
351 263
352 263
353 263
354 263
355 263
356 263
357 263
358 263
359 263
360 263
361 263
362 263
363 263
364 263
365 263
366 263
367 263
368 263
369 263
370 263
371 263
372 263
349 264
350 264
351 264
352 264
353 264
354 264
355 264
356 264
357 264
358 264
359 264
360 264
361 264
362 264
363 264
364 264
365 264
366 264
367 264
368 264
369 264
370 264
371 264
372 264
349 265
350 265
351 265
352 265
353 265
354 265
355 265
356 265
357 265
358 265
359 265
360 265
361 265
362 265
363 265
364 265
365 265
366 265
367 265
368 265
369 265
370 265
371 265
372 265
349 266
350 266
351 266
352 266
353 266
354 266
355 266
356 266
357 266
358 266
359 266
360 266
361 266
362 266
363 266
364 266
365 266
366 266
367 266
368 266
369 266
370 266
371 266
372 266
349 267
350 267
351 267
352 267
353 267
354 267
355 267
356 267
357 267
358 267
359 267
360 267
361 267
362 267
363 267
364 267
365 267
366 267
367 267
368 267
369 267
370 267
371 267
372 267
349 268
350 268
351 268
352 268
353 268
354 268
355 268
356 268
357 268
358 268
359 268
360 268
361 268
362 268
363 268
364 268
365 268
366 268
367 268
368 268
369 268
370 268
371 268
372 268
349 269
350 269
351 269
352 269
353 269
354 269
355 269
356 269
357 269
358 269
359 269
360 269
361 269
362 269
363 269
364 269
365 269
366 269
367 269
368 269
369 269
370 269
371 269
372 269
349 270
350 270
351 270
352 270
353 270
354 270
355 270
356 270
357 270
358 270
359 270
360 270
361 270
362 270
363 270
364 270
365 270
366 270
367 270
368 270
369 270
370 270
371 270
372 270
349 271
350 271
351 271
352 271
353 271
354 271
355 271
356 271
357 271
358 271
359 271
360 271
361 271
362 271
363 271
364 271
365 271
366 271
367 271
368 271
369 271
370 271
371 271
372 271
349 272
350 272
351 272
352 272
353 272
354 272
355 272
356 272
357 272
358 272
359 272
360 272
361 272
362 272
363 272
364 272
365 272
366 272
367 272
368 272
369 272
370 272
371 272
372 272
349 273
350 273
351 273
352 273
353 273
354 273
355 273
356 273
357 273
358 273
359 273
360 273
361 273
362 273
363 273
364 273
365 273
366 273
367 273
368 273
369 273
370 273
371 273
372 273
349 274
350 274
351 274
352 274
353 274
354 274
355 274
356 274
357 274
358 274
359 274
360 274
361 274
362 274
363 274
364 274
365 274
366 274
367 274
368 274
369 274
370 274
371 274
372 274
349 275
350 275
351 275
352 275
353 275
354 275
355 275
356 275
357 275
358 275
359 275
360 275
361 275
362 275
363 275
364 275
365 275
366 275
367 275
368 275
369 275
370 275
371 275
372 275
349 276
350 276
351 276
352 276
353 276
354 276
355 276
356 276
357 276
358 276
359 276
360 276
361 276
362 276
363 276
364 276
365 276
366 276
367 276
368 276
369 276
370 276
371 276
372 276
349 277
350 277
351 277
352 277
353 277
354 277
355 277
356 277
357 277
358 277
359 277
360 277
361 277
362 277
363 277
364 277
365 277
366 277
367 277
368 277
369 277
370 277
371 277
372 277
349 278
350 278
351 278
352 278
353 278
354 278
355 278
356 278
357 278
358 278
359 278
360 278
361 278
362 278
363 278
364 278
365 278
366 278
367 278
368 278
369 278
370 278
371 278
372 278
349 279
350 279
351 279
352 279
353 279
354 279
355 279
356 279
357 279
358 279
359 279
360 279
361 279
362 279
363 279
364 279
365 279
366 279
367 279
368 279
369 279
370 279
371 279
372 279
349 280
350 280
351 280
352 280
353 280
354 280
355 280
356 280
357 280
358 280
359 280
360 280
361 280
362 280
363 280
364 280
365 280
366 280
367 280
368 280
369 280
370 280
371 280
372 280
349 281
350 281
351 281
352 281
353 281
354 281
355 281
356 281
357 281
358 281
359 281
360 281
361 281
362 281
363 281
364 281
365 281
366 281
367 281
368 281
369 281
370 281
371 281
372 281
349 282
350 282
351 282
352 282
353 282
354 282
355 282
356 282
357 282
358 282
359 282
360 282
361 282
362 282
363 282
364 282
365 282
366 282
367 282
368 282
369 282
370 282
371 282
372 282
349 283
350 283
351 283
352 283
353 283
354 283
355 283
356 283
357 283
358 283
359 283
360 283
361 283
362 283
363 283
364 283
365 283
366 283
367 283
368 283
369 283
370 283
371 283
372 283
349 284
350 284
351 284
352 284
353 284
354 284
355 284
356 284
357 284
358 284
359 284
360 284
361 284
362 284
363 284
364 284
365 284
366 284
367 284
368 284
369 284
370 284
371 284
372 284
349 285
350 285
351 285
352 285
353 285
354 285
355 285
356 285
357 285
358 285
359 285
360 285
361 285
362 285
363 285
364 285
365 285
366 285
367 285
368 285
369 285
370 285
371 285
372 285
349 286
350 286
351 286
352 286
353 286
354 286
355 286
356 286
357 286
358 286
359 286
360 286
361 286
362 286
363 286
364 286
365 286
366 286
367 286
368 286
369 286
370 286
371 286
372 286
349 287
350 287
351 287
352 287
353 287
354 287
355 287
356 287
357 287
358 287
359 287
360 287
361 287
362 287
363 287
364 287
365 287
366 287
367 287
368 287
369 287
370 287
371 287
372 287
349 288
350 288
351 288
352 288
353 288
354 288
355 288
356 288
357 288
358 288
359 288
360 288
361 288
362 288
363 288
364 288
365 288
366 288
367 288
368 288
369 288
370 288
371 288
372 288
