%%MatrixMarket matrix coordinate pattern general
599 384 12648
25 1
26 1
27 1
28 1
29 1
30 1
31 1
32 1
33 1
34 1
35 1
36 1
37 1
38 1
39 1
40 1
41 1
42 1
43 1
44 1
45 1
46 1
47 1
48 1
49 1
50 1
51 1
52 1
53 1
54 1
55 1
56 1
57 1
58 1
59 1
60 1
61 1
62 1
63 1
64 1
65 1
66 1
67 1
68 1
69 1
70 1
71 1
72 1
73 1
74 1
75 1
76 1
77 1
78 1
79 1
80 1
81 1
82 1
83 1
84 1
85 1
86 1
87 1
88 1
89 1
90 1
91 1
92 1
93 1
94 1
95 1
96 1
97 1
98 1
99 1
100 1
101 1
102 1
103 1
104 1
105 1
106 1
107 1
108 1
109 1
110 1
111 1
112 1
113 1
114 1
115 1
116 1
117 1
118 1
119 1
120 1
121 1
122 1
123 1
124 1
125 1
126 1
127 1
128 1
129 1
130 1
131 1
132 1
133 1
134 1
135 1
136 1
137 1
138 1
139 1
140 1
141 1
142 1
143 1
144 1
145 1
146 1
147 1
148 1
149 1
150 1
151 1
152 1
153 1
154 1
155 1
156 1
157 1
158 1
159 1
160 1
161 1
162 1
163 1
164 1
165 1
166 1
167 1
168 1
169 1
170 1
171 1
172 1
173 1
174 1
25 2
26 2
27 2
28 2
29 2
30 2
31 2
32 2
33 2
34 2
35 2
36 2
37 2
38 2
39 2
40 2
41 2
42 2
43 2
44 2
45 2
46 2
47 2
48 2
49 2
50 2
51 2
52 2
53 2
54 2
55 2
56 2
57 2
58 2
59 2
60 2
61 2
62 2
63 2
64 2
65 2
66 2
67 2
68 2
69 2
70 2
71 2
72 2
73 2
74 2
75 2
76 2
77 2
78 2
79 2
80 2
81 2
82 2
83 2
84 2
85 2
86 2
87 2
88 2
89 2
90 2
91 2
92 2
93 2
94 2
95 2
96 2
97 2
98 2
99 2
100 2
101 2
102 2
103 2
104 2
105 2
106 2
107 2
108 2
109 2
110 2
111 2
112 2
113 2
114 2
115 2
116 2
117 2
118 2
119 2
120 2
121 2
122 2
123 2
124 2
125 2
126 2
127 2
128 2
129 2
130 2
131 2
132 2
133 2
134 2
135 2
136 2
137 2
138 2
139 2
140 2
141 2
142 2
143 2
144 2
145 2
146 2
147 2
148 2
149 2
150 2
151 2
152 2
153 2
154 2
155 2
156 2
157 2
158 2
159 2
160 2
161 2
162 2
163 2
164 2
165 2
166 2
167 2
168 2
169 2
170 2
171 2
172 2
173 2
174 2
25 3
26 3
27 3
28 3
29 3
30 3
31 3
32 3
33 3
34 3
35 3
36 3
37 3
38 3
39 3
40 3
41 3
42 3
43 3
44 3
45 3
46 3
47 3
48 3
49 3
50 3
51 3
52 3
53 3
54 3
55 3
56 3
57 3
58 3
59 3
60 3
61 3
62 3
63 3
64 3
65 3
66 3
67 3
68 3
69 3
70 3
71 3
72 3
73 3
74 3
75 3
76 3
77 3
78 3
79 3
80 3
81 3
82 3
83 3
84 3
85 3
86 3
87 3
88 3
89 3
90 3
91 3
92 3
93 3
94 3
95 3
96 3
97 3
98 3
99 3
100 3
101 3
102 3
103 3
104 3
105 3
106 3
107 3
108 3
109 3
110 3
111 3
112 3
113 3
114 3
115 3
116 3
117 3
118 3
119 3
120 3
121 3
122 3
123 3
124 3
125 3
126 3
127 3
128 3
129 3
130 3
131 3
132 3
133 3
134 3
135 3
136 3
137 3
138 3
139 3
140 3
141 3
142 3
143 3
144 3
145 3
146 3
147 3
148 3
149 3
150 3
151 3
152 3
153 3
154 3
155 3
156 3
157 3
158 3
159 3
160 3
161 3
162 3
163 3
164 3
165 3
166 3
167 3
168 3
169 3
170 3
171 3
172 3
173 3
174 3
25 4
26 4
27 4
28 4
29 4
30 4
31 4
32 4
33 4
34 4
35 4
36 4
37 4
38 4
39 4
40 4
41 4
42 4
43 4
44 4
45 4
46 4
47 4
48 4
49 4
50 4
51 4
52 4
53 4
54 4
55 4
56 4
57 4
58 4
59 4
60 4
61 4
62 4
63 4
64 4
65 4
66 4
67 4
68 4
69 4
70 4
71 4
72 4
73 4
74 4
75 4
76 4
77 4
78 4
79 4
80 4
81 4
82 4
83 4
84 4
85 4
86 4
87 4
88 4
89 4
90 4
91 4
92 4
93 4
94 4
95 4
96 4
97 4
98 4
99 4
100 4
101 4
102 4
103 4
104 4
105 4
106 4
107 4
108 4
109 4
110 4
111 4
112 4
113 4
114 4
115 4
116 4
117 4
118 4
119 4
120 4
121 4
122 4
123 4
124 4
125 4
126 4
127 4
128 4
129 4
130 4
131 4
132 4
133 4
134 4
135 4
136 4
137 4
138 4
139 4
140 4
141 4
142 4
143 4
144 4
145 4
146 4
147 4
148 4
149 4
150 4
151 4
152 4
153 4
154 4
155 4
156 4
157 4
158 4
159 4
160 4
161 4
162 4
163 4
164 4
165 4
166 4
167 4
168 4
169 4
170 4
171 4
172 4
173 4
174 4
25 5
26 5
27 5
28 5
29 5
30 5
31 5
32 5
33 5
34 5
35 5
36 5
37 5
38 5
39 5
40 5
41 5
42 5
43 5
44 5
45 5
46 5
47 5
48 5
49 5
50 5
51 5
52 5
53 5
54 5
55 5
56 5
57 5
58 5
59 5
60 5
61 5
62 5
63 5
64 5
65 5
66 5
67 5
68 5
69 5
70 5
71 5
72 5
73 5
74 5
75 5
76 5
77 5
78 5
79 5
80 5
81 5
82 5
83 5
84 5
85 5
86 5
87 5
88 5
89 5
90 5
91 5
92 5
93 5
94 5
95 5
96 5
97 5
98 5
99 5
100 5
101 5
102 5
103 5
104 5
105 5
106 5
107 5
108 5
109 5
110 5
111 5
112 5
113 5
114 5
115 5
116 5
117 5
118 5
119 5
120 5
121 5
122 5
123 5
124 5
125 5
126 5
127 5
128 5
129 5
130 5
131 5
132 5
133 5
134 5
135 5
136 5
137 5
138 5
139 5
140 5
141 5
142 5
143 5
144 5
145 5
146 5
147 5
148 5
149 5
150 5
151 5
152 5
153 5
154 5
155 5
156 5
157 5
158 5
159 5
160 5
161 5
162 5
163 5
164 5
165 5
166 5
167 5
168 5
169 5
170 5
171 5
172 5
173 5
174 5
25 6
26 6
27 6
28 6
29 6
30 6
31 6
32 6
33 6
34 6
35 6
36 6
37 6
38 6
39 6
40 6
41 6
42 6
43 6
44 6
45 6
46 6
47 6
48 6
49 6
50 6
51 6
52 6
53 6
54 6
55 6
56 6
57 6
58 6
59 6
60 6
61 6
62 6
63 6
64 6
65 6
66 6
67 6
68 6
69 6
70 6
71 6
72 6
73 6
74 6
75 6
76 6
77 6
78 6
79 6
80 6
81 6
82 6
83 6
84 6
85 6
86 6
87 6
88 6
89 6
90 6
91 6
92 6
93 6
94 6
95 6
96 6
97 6
98 6
99 6
100 6
101 6
102 6
103 6
104 6
105 6
106 6
107 6
108 6
109 6
110 6
111 6
112 6
113 6
114 6
115 6
116 6
117 6
118 6
119 6
120 6
121 6
122 6
123 6
124 6
125 6
126 6
127 6
128 6
129 6
130 6
131 6
132 6
133 6
134 6
135 6
136 6
137 6
138 6
139 6
140 6
141 6
142 6
143 6
144 6
145 6
146 6
147 6
148 6
149 6
150 6
151 6
152 6
153 6
154 6
155 6
156 6
157 6
158 6
159 6
160 6
161 6
162 6
163 6
164 6
165 6
166 6
167 6
168 6
169 6
170 6
171 6
172 6
173 6
174 6
25 7
26 7
27 7
28 7
29 7
30 7
31 7
32 7
33 7
34 7
35 7
36 7
37 7
38 7
39 7
40 7
41 7
42 7
43 7
44 7
45 7
46 7
47 7
48 7
49 7
50 7
51 7
52 7
53 7
54 7
55 7
56 7
57 7
58 7
59 7
60 7
61 7
62 7
63 7
64 7
65 7
66 7
67 7
68 7
69 7
70 7
71 7
72 7
73 7
74 7
75 7
76 7
77 7
78 7
79 7
80 7
81 7
82 7
83 7
84 7
85 7
86 7
87 7
88 7
89 7
90 7
91 7
92 7
93 7
94 7
95 7
96 7
97 7
98 7
99 7
100 7
101 7
102 7
103 7
104 7
105 7
106 7
107 7
108 7
109 7
110 7
111 7
112 7
113 7
114 7
115 7
116 7
117 7
118 7
119 7
120 7
121 7
122 7
123 7
124 7
125 7
126 7
127 7
128 7
129 7
130 7
131 7
132 7
133 7
134 7
135 7
136 7
137 7
138 7
139 7
140 7
141 7
142 7
143 7
144 7
145 7
146 7
147 7
148 7
149 7
150 7
151 7
152 7
153 7
154 7
155 7
156 7
157 7
158 7
159 7
160 7
161 7
162 7
163 7
164 7
165 7
166 7
167 7
168 7
169 7
170 7
171 7
172 7
173 7
174 7
25 8
26 8
27 8
28 8
29 8
30 8
31 8
32 8
33 8
34 8
35 8
36 8
37 8
38 8
39 8
40 8
41 8
42 8
43 8
44 8
45 8
46 8
47 8
48 8
49 8
50 8
51 8
52 8
53 8
54 8
55 8
56 8
57 8
58 8
59 8
60 8
61 8
62 8
63 8
64 8
65 8
66 8
67 8
68 8
69 8
70 8
71 8
72 8
73 8
74 8
75 8
76 8
77 8
78 8
79 8
80 8
81 8
82 8
83 8
84 8
85 8
86 8
87 8
88 8
89 8
90 8
91 8
92 8
93 8
94 8
95 8
96 8
97 8
98 8
99 8
100 8
101 8
102 8
103 8
104 8
105 8
106 8
107 8
108 8
109 8
110 8
111 8
112 8
113 8
114 8
115 8
116 8
117 8
118 8
119 8
120 8
121 8
122 8
123 8
124 8
125 8
126 8
127 8
128 8
129 8
130 8
131 8
132 8
133 8
134 8
135 8
136 8
137 8
138 8
139 8
140 8
141 8
142 8
143 8
144 8
145 8
146 8
147 8
148 8
149 8
150 8
151 8
152 8
153 8
154 8
155 8
156 8
157 8
158 8
159 8
160 8
161 8
162 8
163 8
164 8
165 8
166 8
167 8
168 8
169 8
170 8
171 8
172 8
173 8
174 8
25 9
26 9
27 9
28 9
29 9
30 9
31 9
32 9
33 9
34 9
35 9
36 9
37 9
38 9
39 9
40 9
41 9
42 9
43 9
44 9
45 9
46 9
47 9
48 9
49 9
50 9
51 9
52 9
53 9
54 9
55 9
56 9
57 9
58 9
59 9
60 9
61 9
62 9
63 9
64 9
65 9
66 9
67 9
68 9
69 9
70 9
71 9
72 9
73 9
74 9
75 9
76 9
77 9
78 9
79 9
80 9
81 9
82 9
83 9
84 9
85 9
86 9
87 9
88 9
89 9
90 9
91 9
92 9
93 9
94 9
95 9
96 9
97 9
98 9
99 9
100 9
101 9
102 9
103 9
104 9
105 9
106 9
107 9
108 9
109 9
110 9
111 9
112 9
113 9
114 9
115 9
116 9
117 9
118 9
119 9
120 9
121 9
122 9
123 9
124 9
125 9
126 9
127 9
128 9
129 9
130 9
131 9
132 9
133 9
134 9
135 9
136 9
137 9
138 9
139 9
140 9
141 9
142 9
143 9
144 9
145 9
146 9
147 9
148 9
149 9
150 9
151 9
152 9
153 9
154 9
155 9
156 9
157 9
158 9
159 9
160 9
161 9
162 9
163 9
164 9
165 9
166 9
167 9
168 9
169 9
170 9
171 9
172 9
173 9
174 9
25 10
26 10
27 10
28 10
29 10
30 10
31 10
32 10
33 10
34 10
35 10
36 10
37 10
38 10
39 10
40 10
41 10
42 10
43 10
44 10
45 10
46 10
47 10
48 10
49 10
50 10
51 10
52 10
53 10
54 10
55 10
56 10
57 10
58 10
59 10
60 10
61 10
62 10
63 10
64 10
65 10
66 10
67 10
68 10
69 10
70 10
71 10
72 10
73 10
74 10
75 10
76 10
77 10
78 10
79 10
80 10
81 10
82 10
83 10
84 10
85 10
86 10
87 10
88 10
89 10
90 10
91 10
92 10
93 10
94 10
95 10
96 10
97 10
98 10
99 10
100 10
101 10
102 10
103 10
104 10
105 10
106 10
107 10
108 10
109 10
110 10
111 10
112 10
113 10
114 10
115 10
116 10
117 10
118 10
119 10
120 10
121 10
122 10
123 10
124 10
125 10
126 10
127 10
128 10
129 10
130 10
131 10
132 10
133 10
134 10
135 10
136 10
137 10
138 10
139 10
140 10
141 10
142 10
143 10
144 10
145 10
146 10
147 10
148 10
149 10
150 10
151 10
152 10
153 10
154 10
155 10
156 10
157 10
158 10
159 10
160 10
161 10
162 10
163 10
164 10
165 10
166 10
167 10
168 10
169 10
170 10
171 10
172 10
173 10
174 10
25 11
26 11
27 11
28 11
29 11
30 11
31 11
32 11
33 11
34 11
35 11
36 11
37 11
38 11
39 11
40 11
41 11
42 11
43 11
44 11
45 11
46 11
47 11
48 11
49 11
50 11
51 11
52 11
53 11
54 11
55 11
56 11
57 11
58 11
59 11
60 11
61 11
62 11
63 11
64 11
65 11
66 11
67 11
68 11
69 11
70 11
71 11
72 11
73 11
74 11
75 11
76 11
77 11
78 11
79 11
80 11
81 11
82 11
83 11
84 11
85 11
86 11
87 11
88 11
89 11
90 11
91 11
92 11
93 11
94 11
95 11
96 11
97 11
98 11
99 11
100 11
101 11
102 11
103 11
104 11
105 11
106 11
107 11
108 11
109 11
110 11
111 11
112 11
113 11
114 11
115 11
116 11
117 11
118 11
119 11
120 11
121 11
122 11
123 11
124 11
125 11
126 11
127 11
128 11
129 11
130 11
131 11
132 11
133 11
134 11
135 11
136 11
137 11
138 11
139 11
140 11
141 11
142 11
143 11
144 11
145 11
146 11
147 11
148 11
149 11
150 11
151 11
152 11
153 11
154 11
155 11
156 11
157 11
158 11
159 11
160 11
161 11
162 11
163 11
164 11
165 11
166 11
167 11
168 11
169 11
170 11
171 11
172 11
173 11
174 11
25 12
26 12
27 12
28 12
29 12
30 12
31 12
32 12
33 12
34 12
35 12
36 12
37 12
38 12
39 12
40 12
41 12
42 12
43 12
44 12
45 12
46 12
47 12
48 12
49 12
50 12
51 12
52 12
53 12
54 12
55 12
56 12
57 12
58 12
59 12
60 12
61 12
62 12
63 12
64 12
65 12
66 12
67 12
68 12
69 12
70 12
71 12
72 12
73 12
74 12
75 12
76 12
77 12
78 12
79 12
80 12
81 12
82 12
83 12
84 12
85 12
86 12
87 12
88 12
89 12
90 12
91 12
92 12
93 12
94 12
95 12
96 12
97 12
98 12
99 12
100 12
101 12
102 12
103 12
104 12
105 12
106 12
107 12
108 12
109 12
110 12
111 12
112 12
113 12
114 12
115 12
116 12
117 12
118 12
119 12
120 12
121 12
122 12
123 12
124 12
125 12
126 12
127 12
128 12
129 12
130 12
131 12
132 12
133 12
134 12
135 12
136 12
137 12
138 12
139 12
140 12
141 12
142 12
143 12
144 12
145 12
146 12
147 12
148 12
149 12
150 12
151 12
152 12
153 12
154 12
155 12
156 12
157 12
158 12
159 12
160 12
161 12
162 12
163 12
164 12
165 12
166 12
167 12
168 12
169 12
170 12
171 12
172 12
173 12
174 12
25 13
26 13
27 13
28 13
29 13
30 13
31 13
32 13
33 13
34 13
35 13
36 13
37 13
38 13
39 13
40 13
41 13
42 13
43 13
44 13
45 13
46 13
47 13
48 13
49 13
50 13
51 13
52 13
53 13
54 13
55 13
56 13
57 13
58 13
59 13
60 13
61 13
62 13
63 13
64 13
65 13
66 13
67 13
68 13
69 13
70 13
71 13
72 13
73 13
74 13
75 13
76 13
77 13
78 13
79 13
80 13
81 13
82 13
83 13
84 13
85 13
86 13
87 13
88 13
89 13
90 13
91 13
92 13
93 13
94 13
95 13
96 13
97 13
98 13
99 13
100 13
101 13
102 13
103 13
104 13
105 13
106 13
107 13
108 13
109 13
110 13
111 13
112 13
113 13
114 13
115 13
116 13
117 13
118 13
119 13
120 13
121 13
122 13
123 13
124 13
125 13
126 13
127 13
128 13
129 13
130 13
131 13
132 13
133 13
134 13
135 13
136 13
137 13
138 13
139 13
140 13
141 13
142 13
143 13
144 13
145 13
146 13
147 13
148 13
149 13
150 13
151 13
152 13
153 13
154 13
155 13
156 13
157 13
158 13
159 13
160 13
161 13
162 13
163 13
164 13
165 13
166 13
167 13
168 13
169 13
170 13
171 13
172 13
173 13
174 13
25 14
26 14
27 14
28 14
29 14
30 14
31 14
32 14
33 14
34 14
35 14
36 14
37 14
38 14
39 14
40 14
41 14
42 14
43 14
44 14
45 14
46 14
47 14
48 14
49 14
50 14
51 14
52 14
53 14
54 14
55 14
56 14
57 14
58 14
59 14
60 14
61 14
62 14
63 14
64 14
65 14
66 14
67 14
68 14
69 14
70 14
71 14
72 14
73 14
74 14
75 14
76 14
77 14
78 14
79 14
80 14
81 14
82 14
83 14
84 14
85 14
86 14
87 14
88 14
89 14
90 14
91 14
92 14
93 14
94 14
95 14
96 14
97 14
98 14
99 14
100 14
101 14
102 14
103 14
104 14
105 14
106 14
107 14
108 14
109 14
110 14
111 14
112 14
113 14
114 14
115 14
116 14
117 14
118 14
119 14
120 14
121 14
122 14
123 14
124 14
125 14
126 14
127 14
128 14
129 14
130 14
131 14
132 14
133 14
134 14
135 14
136 14
137 14
138 14
139 14
140 14
141 14
142 14
143 14
144 14
145 14
146 14
147 14
148 14
149 14
150 14
151 14
152 14
153 14
154 14
155 14
156 14
157 14
158 14
159 14
160 14
161 14
162 14
163 14
164 14
165 14
166 14
167 14
168 14
169 14
170 14
171 14
172 14
173 14
174 14
25 15
26 15
27 15
28 15
29 15
30 15
31 15
32 15
33 15
34 15
35 15
36 15
37 15
38 15
39 15
40 15
41 15
42 15
43 15
44 15
45 15
46 15
47 15
48 15
49 15
50 15
51 15
52 15
53 15
54 15
55 15
56 15
57 15
58 15
59 15
60 15
61 15
62 15
63 15
64 15
65 15
66 15
67 15
68 15
69 15
70 15
71 15
72 15
73 15
74 15
75 15
76 15
77 15
78 15
79 15
80 15
81 15
82 15
83 15
84 15
85 15
86 15
87 15
88 15
89 15
90 15
91 15
92 15
93 15
94 15
95 15
96 15
97 15
98 15
99 15
100 15
101 15
102 15
103 15
104 15
105 15
106 15
107 15
108 15
109 15
110 15
111 15
112 15
113 15
114 15
115 15
116 15
117 15
118 15
119 15
120 15
121 15
122 15
123 15
124 15
125 15
126 15
127 15
128 15
129 15
130 15
131 15
132 15
133 15
134 15
135 15
136 15
137 15
138 15
139 15
140 15
141 15
142 15
143 15
144 15
145 15
146 15
147 15
148 15
149 15
150 15
151 15
152 15
153 15
154 15
155 15
156 15
157 15
158 15
159 15
160 15
161 15
162 15
163 15
164 15
165 15
166 15
167 15
168 15
169 15
170 15
171 15
172 15
173 15
174 15
25 16
26 16
27 16
28 16
29 16
30 16
31 16
32 16
33 16
34 16
35 16
36 16
37 16
38 16
39 16
40 16
41 16
42 16
43 16
44 16
45 16
46 16
47 16
48 16
49 16
50 16
51 16
52 16
53 16
54 16
55 16
56 16
57 16
58 16
59 16
60 16
61 16
62 16
63 16
64 16
65 16
66 16
67 16
68 16
69 16
70 16
71 16
72 16
73 16
74 16
75 16
76 16
77 16
78 16
79 16
80 16
81 16
82 16
83 16
84 16
85 16
86 16
87 16
88 16
89 16
90 16
91 16
92 16
93 16
94 16
95 16
96 16
97 16
98 16
99 16
100 16
101 16
102 16
103 16
104 16
105 16
106 16
107 16
108 16
109 16
110 16
111 16
112 16
113 16
114 16
115 16
116 16
117 16
118 16
119 16
120 16
121 16
122 16
123 16
124 16
125 16
126 16
127 16
128 16
129 16
130 16
131 16
132 16
133 16
134 16
135 16
136 16
137 16
138 16
139 16
140 16
141 16
142 16
143 16
144 16
145 16
146 16
147 16
148 16
149 16
150 16
151 16
152 16
153 16
154 16
155 16
156 16
157 16
158 16
159 16
160 16
161 16
162 16
163 16
164 16
165 16
166 16
167 16
168 16
169 16
170 16
171 16
172 16
173 16
174 16
25 17
26 17
27 17
28 17
29 17
30 17
31 17
32 17
33 17
34 17
35 17
36 17
37 17
38 17
39 17
40 17
41 17
42 17
43 17
44 17
45 17
46 17
47 17
48 17
49 17
50 17
51 17
52 17
53 17
54 17
55 17
56 17
57 17
58 17
59 17
60 17
61 17
62 17
63 17
64 17
65 17
66 17
67 17
68 17
69 17
70 17
71 17
72 17
73 17
74 17
75 17
76 17
77 17
78 17
79 17
80 17
81 17
82 17
83 17
84 17
85 17
86 17
87 17
88 17
89 17
90 17
91 17
92 17
93 17
94 17
95 17
96 17
97 17
98 17
99 17
100 17
101 17
102 17
103 17
104 17
105 17
106 17
107 17
108 17
109 17
110 17
111 17
112 17
113 17
114 17
115 17
116 17
117 17
118 17
119 17
120 17
121 17
122 17
123 17
124 17
125 17
126 17
127 17
128 17
129 17
130 17
131 17
132 17
133 17
134 17
135 17
136 17
137 17
138 17
139 17
140 17
141 17
142 17
143 17
144 17
145 17
146 17
147 17
148 17
149 17
150 17
151 17
152 17
153 17
154 17
155 17
156 17
157 17
158 17
159 17
160 17
161 17
162 17
163 17
164 17
165 17
166 17
167 17
168 17
169 17
170 17
171 17
172 17
173 17
174 17
25 18
26 18
27 18
28 18
29 18
30 18
31 18
32 18
33 18
34 18
35 18
36 18
37 18
38 18
39 18
40 18
41 18
42 18
43 18
44 18
45 18
46 18
47 18
48 18
49 18
50 18
51 18
52 18
53 18
54 18
55 18
56 18
57 18
58 18
59 18
60 18
61 18
62 18
63 18
64 18
65 18
66 18
67 18
68 18
69 18
70 18
71 18
72 18
73 18
74 18
75 18
76 18
77 18
78 18
79 18
80 18
81 18
82 18
83 18
84 18
85 18
86 18
87 18
88 18
89 18
90 18
91 18
92 18
93 18
94 18
95 18
96 18
97 18
98 18
99 18
100 18
101 18
102 18
103 18
104 18
105 18
106 18
107 18
108 18
109 18
110 18
111 18
112 18
113 18
114 18
115 18
116 18
117 18
118 18
119 18
120 18
121 18
122 18
123 18
124 18
125 18
126 18
127 18
128 18
129 18
130 18
131 18
132 18
133 18
134 18
135 18
136 18
137 18
138 18
139 18
140 18
141 18
142 18
143 18
144 18
145 18
146 18
147 18
148 18
149 18
150 18
151 18
152 18
153 18
154 18
155 18
156 18
157 18
158 18
159 18
160 18
161 18
162 18
163 18
164 18
165 18
166 18
167 18
168 18
169 18
170 18
171 18
172 18
173 18
174 18
25 19
26 19
27 19
28 19
29 19
30 19
31 19
32 19
33 19
34 19
35 19
36 19
37 19
38 19
39 19
40 19
41 19
42 19
43 19
44 19
45 19
46 19
47 19
48 19
49 19
50 19
51 19
52 19
53 19
54 19
55 19
56 19
57 19
58 19
59 19
60 19
61 19
62 19
63 19
64 19
65 19
66 19
67 19
68 19
69 19
70 19
71 19
72 19
73 19
74 19
75 19
76 19
77 19
78 19
79 19
80 19
81 19
82 19
83 19
84 19
85 19
86 19
87 19
88 19
89 19
90 19
91 19
92 19
93 19
94 19
95 19
96 19
97 19
98 19
99 19
100 19
101 19
102 19
103 19
104 19
105 19
106 19
107 19
108 19
109 19
110 19
111 19
112 19
113 19
114 19
115 19
116 19
117 19
118 19
119 19
120 19
121 19
122 19
123 19
124 19
125 19
126 19
127 19
128 19
129 19
130 19
131 19
132 19
133 19
134 19
135 19
136 19
137 19
138 19
139 19
140 19
141 19
142 19
143 19
144 19
145 19
146 19
147 19
148 19
149 19
150 19
151 19
152 19
153 19
154 19
155 19
156 19
157 19
158 19
159 19
160 19
161 19
162 19
163 19
164 19
165 19
166 19
167 19
168 19
169 19
170 19
171 19
172 19
173 19
174 19
25 20
26 20
27 20
28 20
29 20
30 20
31 20
32 20
33 20
34 20
35 20
36 20
37 20
38 20
39 20
40 20
41 20
42 20
43 20
44 20
45 20
46 20
47 20
48 20
49 20
50 20
51 20
52 20
53 20
54 20
55 20
56 20
57 20
58 20
59 20
60 20
61 20
62 20
63 20
64 20
65 20
66 20
67 20
68 20
69 20
70 20
71 20
72 20
73 20
74 20
75 20
76 20
77 20
78 20
79 20
80 20
81 20
82 20
83 20
84 20
85 20
86 20
87 20
88 20
89 20
90 20
91 20
92 20
93 20
94 20
95 20
96 20
97 20
98 20
99 20
100 20
101 20
102 20
103 20
104 20
105 20
106 20
107 20
108 20
109 20
110 20
111 20
112 20
113 20
114 20
115 20
116 20
117 20
118 20
119 20
120 20
121 20
122 20
123 20
124 20
125 20
126 20
127 20
128 20
129 20
130 20
131 20
132 20
133 20
134 20
135 20
136 20
137 20
138 20
139 20
140 20
141 20
142 20
143 20
144 20
145 20
146 20
147 20
148 20
149 20
150 20
151 20
152 20
153 20
154 20
155 20
156 20
157 20
158 20
159 20
160 20
161 20
162 20
163 20
164 20
165 20
166 20
167 20
168 20
169 20
170 20
171 20
172 20
173 20
174 20
25 21
26 21
27 21
28 21
29 21
30 21
31 21
32 21
33 21
34 21
35 21
36 21
37 21
38 21
39 21
40 21
41 21
42 21
43 21
44 21
45 21
46 21
47 21
48 21
49 21
50 21
51 21
52 21
53 21
54 21
55 21
56 21
57 21
58 21
59 21
60 21
61 21
62 21
63 21
64 21
65 21
66 21
67 21
68 21
69 21
70 21
71 21
72 21
73 21
74 21
75 21
76 21
77 21
78 21
79 21
80 21
81 21
82 21
83 21
84 21
85 21
86 21
87 21
88 21
89 21
90 21
91 21
92 21
93 21
94 21
95 21
96 21
97 21
98 21
99 21
100 21
101 21
102 21
103 21
104 21
105 21
106 21
107 21
108 21
109 21
110 21
111 21
112 21
113 21
114 21
115 21
116 21
117 21
118 21
119 21
120 21
121 21
122 21
123 21
124 21
125 21
126 21
127 21
128 21
129 21
130 21
131 21
132 21
133 21
134 21
135 21
136 21
137 21
138 21
139 21
140 21
141 21
142 21
143 21
144 21
145 21
146 21
147 21
148 21
149 21
150 21
151 21
152 21
153 21
154 21
155 21
156 21
157 21
158 21
159 21
160 21
161 21
162 21
163 21
164 21
165 21
166 21
167 21
168 21
169 21
170 21
171 21
172 21
173 21
174 21
25 22
26 22
27 22
28 22
29 22
30 22
31 22
32 22
33 22
34 22
35 22
36 22
37 22
38 22
39 22
40 22
41 22
42 22
43 22
44 22
45 22
46 22
47 22
48 22
49 22
50 22
51 22
52 22
53 22
54 22
55 22
56 22
57 22
58 22
59 22
60 22
61 22
62 22
63 22
64 22
65 22
66 22
67 22
68 22
69 22
70 22
71 22
72 22
73 22
74 22
75 22
76 22
77 22
78 22
79 22
80 22
81 22
82 22
83 22
84 22
85 22
86 22
87 22
88 22
89 22
90 22
91 22
92 22
93 22
94 22
95 22
96 22
97 22
98 22
99 22
100 22
101 22
102 22
103 22
104 22
105 22
106 22
107 22
108 22
109 22
110 22
111 22
112 22
113 22
114 22
115 22
116 22
117 22
118 22
119 22
120 22
121 22
122 22
123 22
124 22
125 22
126 22
127 22
128 22
129 22
130 22
131 22
132 22
133 22
134 22
135 22
136 22
137 22
138 22
139 22
140 22
141 22
142 22
143 22
144 22
145 22
146 22
147 22
148 22
149 22
150 22
151 22
152 22
153 22
154 22
155 22
156 22
157 22
158 22
159 22
160 22
161 22
162 22
163 22
164 22
165 22
166 22
167 22
168 22
169 22
170 22
171 22
172 22
173 22
174 22
25 23
26 23
27 23
28 23
29 23
30 23
31 23
32 23
33 23
34 23
35 23
36 23
37 23
38 23
39 23
40 23
41 23
42 23
43 23
44 23
45 23
46 23
47 23
48 23
49 23
50 23
51 23
52 23
53 23
54 23
55 23
56 23
57 23
58 23
59 23
60 23
61 23
62 23
63 23
64 23
65 23
66 23
67 23
68 23
69 23
70 23
71 23
72 23
73 23
74 23
75 23
76 23
77 23
78 23
79 23
80 23
81 23
82 23
83 23
84 23
85 23
86 23
87 23
88 23
89 23
90 23
91 23
92 23
93 23
94 23
95 23
96 23
97 23
98 23
99 23
100 23
101 23
102 23
103 23
104 23
105 23
106 23
107 23
108 23
109 23
110 23
111 23
112 23
113 23
114 23
115 23
116 23
117 23
118 23
119 23
120 23
121 23
122 23
123 23
124 23
125 23
126 23
127 23
128 23
129 23
130 23
131 23
132 23
133 23
134 23
135 23
136 23
137 23
138 23
139 23
140 23
141 23
142 23
143 23
144 23
145 23
146 23
147 23
148 23
149 23
150 23
151 23
152 23
153 23
154 23
155 23
156 23
157 23
158 23
159 23
160 23
161 23
162 23
163 23
164 23
165 23
166 23
167 23
168 23
169 23
170 23
171 23
172 23
173 23
174 23
25 24
26 24
27 24
28 24
29 24
30 24
31 24
32 24
33 24
34 24
35 24
36 24
37 24
38 24
39 24
40 24
41 24
42 24
43 24
44 24
45 24
46 24
47 24
48 24
49 24
50 24
51 24
52 24
53 24
54 24
55 24
56 24
57 24
58 24
59 24
60 24
61 24
62 24
63 24
64 24
65 24
66 24
67 24
68 24
69 24
70 24
71 24
72 24
73 24
74 24
75 24
76 24
77 24
78 24
79 24
80 24
81 24
82 24
83 24
84 24
85 24
86 24
87 24
88 24
89 24
90 24
91 24
92 24
93 24
94 24
95 24
96 24
97 24
98 24
99 24
100 24
101 24
102 24
103 24
104 24
105 24
106 24
107 24
108 24
109 24
110 24
111 24
112 24
113 24
114 24
115 24
116 24
117 24
118 24
119 24
120 24
121 24
122 24
123 24
124 24
125 24
126 24
127 24
128 24
129 24
130 24
131 24
132 24
133 24
134 24
135 24
136 24
137 24
138 24
139 24
140 24
141 24
142 24
143 24
144 24
145 24
146 24
147 24
148 24
149 24
150 24
151 24
152 24
153 24
154 24
155 24
156 24
157 24
158 24
159 24
160 24
161 24
162 24
163 24
164 24
165 24
166 24
167 24
168 24
169 24
170 24
171 24
172 24
173 24
174 24
199 97
200 97
201 97
202 97
203 97
204 97
205 97
206 97
207 97
208 97
209 97
210 97
211 97
212 97
213 97
214 97
215 97
216 97
217 97
218 97
219 97
220 97
221 97
222 97
223 97
224 97
225 97
226 97
227 97
228 97
229 97
230 97
231 97
232 97
233 97
234 97
235 97
236 97
237 97
238 97
239 97
240 97
241 97
242 97
243 97
244 97
245 97
246 97
247 97
248 97
249 97
250 97
251 97
252 97
253 97
254 97
255 97
256 97
257 97
258 97
259 97
260 97
261 97
262 97
263 97
264 97
265 97
266 97
267 97
268 97
269 97
270 97
271 97
272 97
273 97
274 97
275 97
276 97
277 97
278 97
279 97
280 97
281 97
282 97
283 97
284 97
285 97
286 97
287 97
288 97
289 97
290 97
291 97
292 97
293 97
294 97
295 97
296 97
297 97
298 97
299 97
300 97
301 97
302 97
303 97
304 97
305 97
306 97
307 97
308 97
309 97
310 97
311 97
312 97
313 97
314 97
315 97
316 97
317 97
318 97
319 97
320 97
321 97
322 97
323 97
324 97
325 97
326 97
327 97
328 97
329 97
330 97
331 97
332 97
333 97
334 97
335 97
336 97
337 97
338 97
339 97
340 97
341 97
342 97
343 97
344 97
345 97
346 97
347 97
348 97
199 98
200 98
201 98
202 98
203 98
204 98
205 98
206 98
207 98
208 98
209 98
210 98
211 98
212 98
213 98
214 98
215 98
216 98
217 98
218 98
219 98
220 98
221 98
222 98
223 98
224 98
225 98
226 98
227 98
228 98
229 98
230 98
231 98
232 98
233 98
234 98
235 98
236 98
237 98
238 98
239 98
240 98
241 98
242 98
243 98
244 98
245 98
246 98
247 98
248 98
249 98
250 98
251 98
252 98
253 98
254 98
255 98
256 98
257 98
258 98
259 98
260 98
261 98
262 98
263 98
264 98
265 98
266 98
267 98
268 98
269 98
270 98
271 98
272 98
273 98
274 98
275 98
276 98
277 98
278 98
279 98
280 98
281 98
282 98
283 98
284 98
285 98
286 98
287 98
288 98
289 98
290 98
291 98
292 98
293 98
294 98
295 98
296 98
297 98
298 98
299 98
300 98
301 98
302 98
303 98
304 98
305 98
306 98
307 98
308 98
309 98
310 98
311 98
312 98
313 98
314 98
315 98
316 98
317 98
318 98
319 98
320 98
321 98
322 98
323 98
324 98
325 98
326 98
327 98
328 98
329 98
330 98
331 98
332 98
333 98
334 98
335 98
336 98
337 98
338 98
339 98
340 98
341 98
342 98
343 98
344 98
345 98
346 98
347 98
348 98
199 99
200 99
201 99
202 99
203 99
204 99
205 99
206 99
207 99
208 99
209 99
210 99
211 99
212 99
213 99
214 99
215 99
216 99
217 99
218 99
219 99
220 99
221 99
222 99
223 99
224 99
225 99
226 99
227 99
228 99
229 99
230 99
231 99
232 99
233 99
234 99
235 99
236 99
237 99
238 99
239 99
240 99
241 99
242 99
243 99
244 99
245 99
246 99
247 99
248 99
249 99
250 99
251 99
252 99
253 99
254 99
255 99
256 99
257 99
258 99
259 99
260 99
261 99
262 99
263 99
264 99
265 99
266 99
267 99
268 99
269 99
270 99
271 99
272 99
273 99
274 99
275 99
276 99
277 99
278 99
279 99
280 99
281 99
282 99
283 99
284 99
285 99
286 99
287 99
288 99
289 99
290 99
291 99
292 99
293 99
294 99
295 99
296 99
297 99
298 99
299 99
300 99
301 99
302 99
303 99
304 99
305 99
306 99
307 99
308 99
309 99
310 99
311 99
312 99
313 99
314 99
315 99
316 99
317 99
318 99
319 99
320 99
321 99
322 99
323 99
324 99
325 99
326 99
327 99
328 99
329 99
330 99
331 99
332 99
333 99
334 99
335 99
336 99
337 99
338 99
339 99
340 99
341 99
342 99
343 99
344 99
345 99
346 99
347 99
348 99
199 100
200 100
201 100
202 100
203 100
204 100
205 100
206 100
207 100
208 100
209 100
210 100
211 100
212 100
213 100
214 100
215 100
216 100
217 100
218 100
219 100
220 100
221 100
222 100
223 100
224 100
225 100
226 100
227 100
228 100
229 100
230 100
231 100
232 100
233 100
234 100
235 100
236 100
237 100
238 100
239 100
240 100
241 100
242 100
243 100
244 100
245 100
246 100
247 100
248 100
249 100
250 100
251 100
252 100
253 100
254 100
255 100
256 100
257 100
258 100
259 100
260 100
261 100
262 100
263 100
264 100
265 100
266 100
267 100
268 100
269 100
270 100
271 100
272 100
273 100
274 100
275 100
276 100
277 100
278 100
279 100
280 100
281 100
282 100
283 100
284 100
285 100
286 100
287 100
288 100
289 100
290 100
291 100
292 100
293 100
294 100
295 100
296 100
297 100
298 100
299 100
300 100
301 100
302 100
303 100
304 100
305 100
306 100
307 100
308 100
309 100
310 100
311 100
312 100
313 100
314 100
315 100
316 100
317 100
318 100
319 100
320 100
321 100
322 100
323 100
324 100
325 100
326 100
327 100
328 100
329 100
330 100
331 100
332 100
333 100
334 100
335 100
336 100
337 100
338 100
339 100
340 100
341 100
342 100
343 100
344 100
345 100
346 100
347 100
348 100
199 101
200 101
201 101
202 101
203 101
204 101
205 101
206 101
207 101
208 101
209 101
210 101
211 101
212 101
213 101
214 101
215 101
216 101
217 101
218 101
219 101
220 101
221 101
222 101
223 101
224 101
225 101
226 101
227 101
228 101
229 101
230 101
231 101
232 101
233 101
234 101
235 101
236 101
237 101
238 101
239 101
240 101
241 101
242 101
243 101
244 101
245 101
246 101
247 101
248 101
249 101
250 101
251 101
252 101
253 101
254 101
255 101
256 101
257 101
258 101
259 101
260 101
261 101
262 101
263 101
264 101
265 101
266 101
267 101
268 101
269 101
270 101
271 101
272 101
273 101
274 101
275 101
276 101
277 101
278 101
279 101
280 101
281 101
282 101
283 101
284 101
285 101
286 101
287 101
288 101
289 101
290 101
291 101
292 101
293 101
294 101
295 101
296 101
297 101
298 101
299 101
300 101
301 101
302 101
303 101
304 101
305 101
306 101
307 101
308 101
309 101
310 101
311 101
312 101
313 101
314 101
315 101
316 101
317 101
318 101
319 101
320 101
321 101
322 101
323 101
324 101
325 101
326 101
327 101
328 101
329 101
330 101
331 101
332 101
333 101
334 101
335 101
336 101
337 101
338 101
339 101
340 101
341 101
342 101
343 101
344 101
345 101
346 101
347 101
348 101
199 102
200 102
201 102
202 102
203 102
204 102
205 102
206 102
207 102
208 102
209 102
210 102
211 102
212 102
213 102
214 102
215 102
216 102
217 102
218 102
219 102
220 102
221 102
222 102
223 102
224 102
225 102
226 102
227 102
228 102
229 102
230 102
231 102
232 102
233 102
234 102
235 102
236 102
237 102
238 102
239 102
240 102
241 102
242 102
243 102
244 102
245 102
246 102
247 102
248 102
249 102
250 102
251 102
252 102
253 102
254 102
255 102
256 102
257 102
258 102
259 102
260 102
261 102
262 102
263 102
264 102
265 102
266 102
267 102
268 102
269 102
270 102
271 102
272 102
273 102
274 102
275 102
276 102
277 102
278 102
279 102
280 102
281 102
282 102
283 102
284 102
285 102
286 102
287 102
288 102
289 102
290 102
291 102
292 102
293 102
294 102
295 102
296 102
297 102
298 102
299 102
300 102
301 102
302 102
303 102
304 102
305 102
306 102
307 102
308 102
309 102
310 102
311 102
312 102
313 102
314 102
315 102
316 102
317 102
318 102
319 102
320 102
321 102
322 102
323 102
324 102
325 102
326 102
327 102
328 102
329 102
330 102
331 102
332 102
333 102
334 102
335 102
336 102
337 102
338 102
339 102
340 102
341 102
342 102
343 102
344 102
345 102
346 102
347 102
348 102
199 103
200 103
201 103
202 103
203 103
204 103
205 103
206 103
207 103
208 103
209 103
210 103
211 103
212 103
213 103
214 103
215 103
216 103
217 103
218 103
219 103
220 103
221 103
222 103
223 103
224 103
225 103
226 103
227 103
228 103
229 103
230 103
231 103
232 103
233 103
234 103
235 103
236 103
237 103
238 103
239 103
240 103
241 103
242 103
243 103
244 103
245 103
246 103
247 103
248 103
249 103
250 103
251 103
252 103
253 103
254 103
255 103
256 103
257 103
258 103
259 103
260 103
261 103
262 103
263 103
264 103
265 103
266 103
267 103
268 103
269 103
270 103
271 103
272 103
273 103
274 103
275 103
276 103
277 103
278 103
279 103
280 103
281 103
282 103
283 103
284 103
285 103
286 103
287 103
288 103
289 103
290 103
291 103
292 103
293 103
294 103
295 103
296 103
297 103
298 103
299 103
300 103
301 103
302 103
303 103
304 103
305 103
306 103
307 103
308 103
309 103
310 103
311 103
312 103
313 103
314 103
315 103
316 103
317 103
318 103
319 103
320 103
321 103
322 103
323 103
324 103
325 103
326 103
327 103
328 103
329 103
330 103
331 103
332 103
333 103
334 103
335 103
336 103
337 103
338 103
339 103
340 103
341 103
342 103
343 103
344 103
345 103
346 103
347 103
348 103
199 104
200 104
201 104
202 104
203 104
204 104
205 104
206 104
207 104
208 104
209 104
210 104
211 104
212 104
213 104
214 104
215 104
216 104
217 104
218 104
219 104
220 104
221 104
222 104
223 104
224 104
225 104
226 104
227 104
228 104
229 104
230 104
231 104
232 104
233 104
234 104
235 104
236 104
237 104
238 104
239 104
240 104
241 104
242 104
243 104
244 104
245 104
246 104
247 104
248 104
249 104
250 104
251 104
252 104
253 104
254 104
255 104
256 104
257 104
258 104
259 104
260 104
261 104
262 104
263 104
264 104
265 104
266 104
267 104
268 104
269 104
270 104
271 104
272 104
273 104
274 104
275 104
276 104
277 104
278 104
279 104
280 104
281 104
282 104
283 104
284 104
285 104
286 104
287 104
288 104
289 104
290 104
291 104
292 104
293 104
294 104
295 104
296 104
297 104
298 104
299 104
300 104
301 104
302 104
303 104
304 104
305 104
306 104
307 104
308 104
309 104
310 104
311 104
312 104
313 104
314 104
315 104
316 104
317 104
318 104
319 104
320 104
321 104
322 104
323 104
324 104
325 104
326 104
327 104
328 104
329 104
330 104
331 104
332 104
333 104
334 104
335 104
336 104
337 104
338 104
339 104
340 104
341 104
342 104
343 104
344 104
345 104
346 104
347 104
348 104
199 105
200 105
201 105
202 105
203 105
204 105
205 105
206 105
207 105
208 105
209 105
210 105
211 105
212 105
213 105
214 105
215 105
216 105
217 105
218 105
219 105
220 105
221 105
222 105
223 105
224 105
225 105
226 105
227 105
228 105
229 105
230 105
231 105
232 105
233 105
234 105
235 105
236 105
237 105
238 105
239 105
240 105
241 105
242 105
243 105
244 105
245 105
246 105
247 105
248 105
249 105
250 105
251 105
252 105
253 105
254 105
255 105
256 105
257 105
258 105
259 105
260 105
261 105
262 105
263 105
264 105
265 105
266 105
267 105
268 105
269 105
270 105
271 105
272 105
273 105
274 105
275 105
276 105
277 105
278 105
279 105
280 105
281 105
282 105
283 105
284 105
285 105
286 105
287 105
288 105
289 105
290 105
291 105
292 105
293 105
294 105
295 105
296 105
297 105
298 105
299 105
300 105
301 105
302 105
303 105
304 105
305 105
306 105
307 105
308 105
309 105
310 105
311 105
312 105
313 105
314 105
315 105
316 105
317 105
318 105
319 105
320 105
321 105
322 105
323 105
324 105
325 105
326 105
327 105
328 105
329 105
330 105
331 105
332 105
333 105
334 105
335 105
336 105
337 105
338 105
339 105
340 105
341 105
342 105
343 105
344 105
345 105
346 105
347 105
348 105
199 106
200 106
201 106
202 106
203 106
204 106
205 106
206 106
207 106
208 106
209 106
210 106
211 106
212 106
213 106
214 106
215 106
216 106
217 106
218 106
219 106
220 106
221 106
222 106
223 106
224 106
225 106
226 106
227 106
228 106
229 106
230 106
231 106
232 106
233 106
234 106
235 106
236 106
237 106
238 106
239 106
240 106
241 106
242 106
243 106
244 106
245 106
246 106
247 106
248 106
249 106
250 106
251 106
252 106
253 106
254 106
255 106
256 106
257 106
258 106
259 106
260 106
261 106
262 106
263 106
264 106
265 106
266 106
267 106
268 106
269 106
270 106
271 106
272 106
273 106
274 106
275 106
276 106
277 106
278 106
279 106
280 106
281 106
282 106
283 106
284 106
285 106
286 106
287 106
288 106
289 106
290 106
291 106
292 106
293 106
294 106
295 106
296 106
297 106
298 106
299 106
300 106
301 106
302 106
303 106
304 106
305 106
306 106
307 106
308 106
309 106
310 106
311 106
312 106
313 106
314 106
315 106
316 106
317 106
318 106
319 106
320 106
321 106
322 106
323 106
324 106
325 106
326 106
327 106
328 106
329 106
330 106
331 106
332 106
333 106
334 106
335 106
336 106
337 106
338 106
339 106
340 106
341 106
342 106
343 106
344 106
345 106
346 106
347 106
348 106
199 107
200 107
201 107
202 107
203 107
204 107
205 107
206 107
207 107
208 107
209 107
210 107
211 107
212 107
213 107
214 107
215 107
216 107
217 107
218 107
219 107
220 107
221 107
222 107
223 107
224 107
225 107
226 107
227 107
228 107
229 107
230 107
231 107
232 107
233 107
234 107
235 107
236 107
237 107
238 107
239 107
240 107
241 107
242 107
243 107
244 107
245 107
246 107
247 107
248 107
249 107
250 107
251 107
252 107
253 107
254 107
255 107
256 107
257 107
258 107
259 107
260 107
261 107
262 107
263 107
264 107
265 107
266 107
267 107
268 107
269 107
270 107
271 107
272 107
273 107
274 107
275 107
276 107
277 107
278 107
279 107
280 107
281 107
282 107
283 107
284 107
285 107
286 107
287 107
288 107
289 107
290 107
291 107
292 107
293 107
294 107
295 107
296 107
297 107
298 107
299 107
300 107
301 107
302 107
303 107
304 107
305 107
306 107
307 107
308 107
309 107
310 107
311 107
312 107
313 107
314 107
315 107
316 107
317 107
318 107
319 107
320 107
321 107
322 107
323 107
324 107
325 107
326 107
327 107
328 107
329 107
330 107
331 107
332 107
333 107
334 107
335 107
336 107
337 107
338 107
339 107
340 107
341 107
342 107
343 107
344 107
345 107
346 107
347 107
348 107
199 108
200 108
201 108
202 108
203 108
204 108
205 108
206 108
207 108
208 108
209 108
210 108
211 108
212 108
213 108
214 108
215 108
216 108
217 108
218 108
219 108
220 108
221 108
222 108
223 108
224 108
225 108
226 108
227 108
228 108
229 108
230 108
231 108
232 108
233 108
234 108
235 108
236 108
237 108
238 108
239 108
240 108
241 108
242 108
243 108
244 108
245 108
246 108
247 108
248 108
249 108
250 108
251 108
252 108
253 108
254 108
255 108
256 108
257 108
258 108
259 108
260 108
261 108
262 108
263 108
264 108
265 108
266 108
267 108
268 108
269 108
270 108
271 108
272 108
273 108
274 108
275 108
276 108
277 108
278 108
279 108
280 108
281 108
282 108
283 108
284 108
285 108
286 108
287 108
288 108
289 108
290 108
291 108
292 108
293 108
294 108
295 108
296 108
297 108
298 108
299 108
300 108
301 108
302 108
303 108
304 108
305 108
306 108
307 108
308 108
309 108
310 108
311 108
312 108
313 108
314 108
315 108
316 108
317 108
318 108
319 108
320 108
321 108
322 108
323 108
324 108
325 108
326 108
327 108
328 108
329 108
330 108
331 108
332 108
333 108
334 108
335 108
336 108
337 108
338 108
339 108
340 108
341 108
342 108
343 108
344 108
345 108
346 108
347 108
348 108
199 109
200 109
201 109
202 109
203 109
204 109
205 109
206 109
207 109
208 109
209 109
210 109
211 109
212 109
213 109
214 109
215 109
216 109
217 109
218 109
219 109
220 109
221 109
222 109
223 109
224 109
225 109
226 109
227 109
228 109
229 109
230 109
231 109
232 109
233 109
234 109
235 109
236 109
237 109
238 109
239 109
240 109
241 109
242 109
243 109
244 109
245 109
246 109
247 109
248 109
249 109
250 109
251 109
252 109
253 109
254 109
255 109
256 109
257 109
258 109
259 109
260 109
261 109
262 109
263 109
264 109
265 109
266 109
267 109
268 109
269 109
270 109
271 109
272 109
273 109
274 109
275 109
276 109
277 109
278 109
279 109
280 109
281 109
282 109
283 109
284 109
285 109
286 109
287 109
288 109
289 109
290 109
291 109
292 109
293 109
294 109
295 109
296 109
297 109
298 109
299 109
300 109
301 109
302 109
303 109
304 109
305 109
306 109
307 109
308 109
309 109
310 109
311 109
312 109
313 109
314 109
315 109
316 109
317 109
318 109
319 109
320 109
321 109
322 109
323 109
324 109
325 109
326 109
327 109
328 109
329 109
330 109
331 109
332 109
333 109
334 109
335 109
336 109
337 109
338 109
339 109
340 109
341 109
342 109
343 109
344 109
345 109
346 109
347 109
348 109
199 110
200 110
201 110
202 110
203 110
204 110
205 110
206 110
207 110
208 110
209 110
210 110
211 110
212 110
213 110
214 110
215 110
216 110
217 110
218 110
219 110
220 110
221 110
222 110
223 110
224 110
225 110
226 110
227 110
228 110
229 110
230 110
231 110
232 110
233 110
234 110
235 110
236 110
237 110
238 110
239 110
240 110
241 110
242 110
243 110
244 110
245 110
246 110
247 110
248 110
249 110
250 110
251 110
252 110
253 110
254 110
255 110
256 110
257 110
258 110
259 110
260 110
261 110
262 110
263 110
264 110
265 110
266 110
267 110
268 110
269 110
270 110
271 110
272 110
273 110
274 110
275 110
276 110
277 110
278 110
279 110
280 110
281 110
282 110
283 110
284 110
285 110
286 110
287 110
288 110
289 110
290 110
291 110
292 110
293 110
294 110
295 110
296 110
297 110
298 110
299 110
300 110
301 110
302 110
303 110
304 110
305 110
306 110
307 110
308 110
309 110
310 110
311 110
312 110
313 110
314 110
315 110
316 110
317 110
318 110
319 110
320 110
321 110
322 110
323 110
324 110
325 110
326 110
327 110
328 110
329 110
330 110
331 110
332 110
333 110
334 110
335 110
336 110
337 110
338 110
339 110
340 110
341 110
342 110
343 110
344 110
345 110
346 110
347 110
348 110
199 111
200 111
201 111
202 111
203 111
204 111
205 111
206 111
207 111
208 111
209 111
210 111
211 111
212 111
213 111
214 111
215 111
216 111
217 111
218 111
219 111
220 111
221 111
222 111
223 111
224 111
225 111
226 111
227 111
228 111
229 111
230 111
231 111
232 111
233 111
234 111
235 111
236 111
237 111
238 111
239 111
240 111
241 111
242 111
243 111
244 111
245 111
246 111
247 111
248 111
249 111
250 111
251 111
252 111
253 111
254 111
255 111
256 111
257 111
258 111
259 111
260 111
261 111
262 111
263 111
264 111
265 111
266 111
267 111
268 111
269 111
270 111
271 111
272 111
273 111
274 111
275 111
276 111
277 111
278 111
279 111
280 111
281 111
282 111
283 111
284 111
285 111
286 111
287 111
288 111
289 111
290 111
291 111
292 111
293 111
294 111
295 111
296 111
297 111
298 111
299 111
300 111
301 111
302 111
303 111
304 111
305 111
306 111
307 111
308 111
309 111
310 111
311 111
312 111
313 111
314 111
315 111
316 111
317 111
318 111
319 111
320 111
321 111
322 111
323 111
324 111
325 111
326 111
327 111
328 111
329 111
330 111
331 111
332 111
333 111
334 111
335 111
336 111
337 111
338 111
339 111
340 111
341 111
342 111
343 111
344 111
345 111
346 111
347 111
348 111
199 112
200 112
201 112
202 112
203 112
204 112
205 112
206 112
207 112
208 112
209 112
210 112
211 112
212 112
213 112
214 112
215 112
216 112
217 112
218 112
219 112
220 112
221 112
222 112
223 112
224 112
225 112
226 112
227 112
228 112
229 112
230 112
231 112
232 112
233 112
234 112
235 112
236 112
237 112
238 112
239 112
240 112
241 112
242 112
243 112
244 112
245 112
246 112
247 112
248 112
249 112
250 112
251 112
252 112
253 112
254 112
255 112
256 112
257 112
258 112
259 112
260 112
261 112
262 112
263 112
264 112
265 112
266 112
267 112
268 112
269 112
270 112
271 112
272 112
273 112
274 112
275 112
276 112
277 112
278 112
279 112
280 112
281 112
282 112
283 112
284 112
285 112
286 112
287 112
288 112
289 112
290 112
291 112
292 112
293 112
294 112
295 112
296 112
297 112
298 112
299 112
300 112
301 112
302 112
303 112
304 112
305 112
306 112
307 112
308 112
309 112
310 112
311 112
312 112
313 112
314 112
315 112
316 112
317 112
318 112
319 112
320 112
321 112
322 112
323 112
324 112
325 112
326 112
327 112
328 112
329 112
330 112
331 112
332 112
333 112
334 112
335 112
336 112
337 112
338 112
339 112
340 112
341 112
342 112
343 112
344 112
345 112
346 112
347 112
348 112
199 113
200 113
201 113
202 113
203 113
204 113
205 113
206 113
207 113
208 113
209 113
210 113
211 113
212 113
213 113
214 113
215 113
216 113
217 113
218 113
219 113
220 113
221 113
222 113
223 113
224 113
225 113
226 113
227 113
228 113
229 113
230 113
231 113
232 113
233 113
234 113
235 113
236 113
237 113
238 113
239 113
240 113
241 113
242 113
243 113
244 113
245 113
246 113
247 113
248 113
249 113
250 113
251 113
252 113
253 113
254 113
255 113
256 113
257 113
258 113
259 113
260 113
261 113
262 113
263 113
264 113
265 113
266 113
267 113
268 113
269 113
270 113
271 113
272 113
273 113
274 113
275 113
276 113
277 113
278 113
279 113
280 113
281 113
282 113
283 113
284 113
285 113
286 113
287 113
288 113
289 113
290 113
291 113
292 113
293 113
294 113
295 113
296 113
297 113
298 113
299 113
300 113
301 113
302 113
303 113
304 113
305 113
306 113
307 113
308 113
309 113
310 113
311 113
312 113
313 113
314 113
315 113
316 113
317 113
318 113
319 113
320 113
321 113
322 113
323 113
324 113
325 113
326 113
327 113
328 113
329 113
330 113
331 113
332 113
333 113
334 113
335 113
336 113
337 113
338 113
339 113
340 113
341 113
342 113
343 113
344 113
345 113
346 113
347 113
348 113
199 114
200 114
201 114
202 114
203 114
204 114
205 114
206 114
207 114
208 114
209 114
210 114
211 114
212 114
213 114
214 114
215 114
216 114
217 114
218 114
219 114
220 114
221 114
222 114
223 114
224 114
225 114
226 114
227 114
228 114
229 114
230 114
231 114
232 114
233 114
234 114
235 114
236 114
237 114
238 114
239 114
240 114
241 114
242 114
243 114
244 114
245 114
246 114
247 114
248 114
249 114
250 114
251 114
252 114
253 114
254 114
255 114
256 114
257 114
258 114
259 114
260 114
261 114
262 114
263 114
264 114
265 114
266 114
267 114
268 114
269 114
270 114
271 114
272 114
273 114
274 114
275 114
276 114
277 114
278 114
279 114
280 114
281 114
282 114
283 114
284 114
285 114
286 114
287 114
288 114
289 114
290 114
291 114
292 114
293 114
294 114
295 114
296 114
297 114
298 114
299 114
300 114
301 114
302 114
303 114
304 114
305 114
306 114
307 114
308 114
309 114
310 114
311 114
312 114
313 114
314 114
315 114
316 114
317 114
318 114
319 114
320 114
321 114
322 114
323 114
324 114
325 114
326 114
327 114
328 114
329 114
330 114
331 114
332 114
333 114
334 114
335 114
336 114
337 114
338 114
339 114
340 114
341 114
342 114
343 114
344 114
345 114
346 114
347 114
348 114
199 115
200 115
201 115
202 115
203 115
204 115
205 115
206 115
207 115
208 115
209 115
210 115
211 115
212 115
213 115
214 115
215 115
216 115
217 115
218 115
219 115
220 115
221 115
222 115
223 115
224 115
225 115
226 115
227 115
228 115
229 115
230 115
231 115
232 115
233 115
234 115
235 115
236 115
237 115
238 115
239 115
240 115
241 115
242 115
243 115
244 115
245 115
246 115
247 115
248 115
249 115
250 115
251 115
252 115
253 115
254 115
255 115
256 115
257 115
258 115
259 115
260 115
261 115
262 115
263 115
264 115
265 115
266 115
267 115
268 115
269 115
270 115
271 115
272 115
273 115
274 115
275 115
276 115
277 115
278 115
279 115
280 115
281 115
282 115
283 115
284 115
285 115
286 115
287 115
288 115
289 115
290 115
291 115
292 115
293 115
294 115
295 115
296 115
297 115
298 115
299 115
300 115
301 115
302 115
303 115
304 115
305 115
306 115
307 115
308 115
309 115
310 115
311 115
312 115
313 115
314 115
315 115
316 115
317 115
318 115
319 115
320 115
321 115
322 115
323 115
324 115
325 115
326 115
327 115
328 115
329 115
330 115
331 115
332 115
333 115
334 115
335 115
336 115
337 115
338 115
339 115
340 115
341 115
342 115
343 115
344 115
345 115
346 115
347 115
348 115
199 116
200 116
201 116
202 116
203 116
204 116
205 116
206 116
207 116
208 116
209 116
210 116
211 116
212 116
213 116
214 116
215 116
216 116
217 116
218 116
219 116
220 116
221 116
222 116
223 116
224 116
225 116
226 116
227 116
228 116
229 116
230 116
231 116
232 116
233 116
234 116
235 116
236 116
237 116
238 116
239 116
240 116
241 116
242 116
243 116
244 116
245 116
246 116
247 116
248 116
249 116
250 116
251 116
252 116
253 116
254 116
255 116
256 116
257 116
258 116
259 116
260 116
261 116
262 116
263 116
264 116
265 116
266 116
267 116
268 116
269 116
270 116
271 116
272 116
273 116
274 116
275 116
276 116
277 116
278 116
279 116
280 116
281 116
282 116
283 116
284 116
285 116
286 116
287 116
288 116
289 116
290 116
291 116
292 116
293 116
294 116
295 116
296 116
297 116
298 116
299 116
300 116
301 116
302 116
303 116
304 116
305 116
306 116
307 116
308 116
309 116
310 116
311 116
312 116
313 116
314 116
315 116
316 116
317 116
318 116
319 116
320 116
321 116
322 116
323 116
324 116
325 116
326 116
327 116
328 116
329 116
330 116
331 116
332 116
333 116
334 116
335 116
336 116
337 116
338 116
339 116
340 116
341 116
342 116
343 116
344 116
345 116
346 116
347 116
348 116
199 117
200 117
201 117
202 117
203 117
204 117
205 117
206 117
207 117
208 117
209 117
210 117
211 117
212 117
213 117
214 117
215 117
216 117
217 117
218 117
219 117
220 117
221 117
222 117
223 117
224 117
225 117
226 117
227 117
228 117
229 117
230 117
231 117
232 117
233 117
234 117
235 117
236 117
237 117
238 117
239 117
240 117
241 117
242 117
243 117
244 117
245 117
246 117
247 117
248 117
249 117
250 117
251 117
252 117
253 117
254 117
255 117
256 117
257 117
258 117
259 117
260 117
261 117
262 117
263 117
264 117
265 117
266 117
267 117
268 117
269 117
270 117
271 117
272 117
273 117
274 117
275 117
276 117
277 117
278 117
279 117
280 117
281 117
282 117
283 117
284 117
285 117
286 117
287 117
288 117
289 117
290 117
291 117
292 117
293 117
294 117
295 117
296 117
297 117
298 117
299 117
300 117
301 117
302 117
303 117
304 117
305 117
306 117
307 117
308 117
309 117
310 117
311 117
312 117
313 117
314 117
315 117
316 117
317 117
318 117
319 117
320 117
321 117
322 117
323 117
324 117
325 117
326 117
327 117
328 117
329 117
330 117
331 117
332 117
333 117
334 117
335 117
336 117
337 117
338 117
339 117
340 117
341 117
342 117
343 117
344 117
345 117
346 117
347 117
348 117
199 118
200 118
201 118
202 118
203 118
204 118
205 118
206 118
207 118
208 118
209 118
210 118
211 118
212 118
213 118
214 118
215 118
216 118
217 118
218 118
219 118
220 118
221 118
222 118
223 118
224 118
225 118
226 118
227 118
228 118
229 118
230 118
231 118
232 118
233 118
234 118
235 118
236 118
237 118
238 118
239 118
240 118
241 118
242 118
243 118
244 118
245 118
246 118
247 118
248 118
249 118
250 118
251 118
252 118
253 118
254 118
255 118
256 118
257 118
258 118
259 118
260 118
261 118
262 118
263 118
264 118
265 118
266 118
267 118
268 118
269 118
270 118
271 118
272 118
273 118
274 118
275 118
276 118
277 118
278 118
279 118
280 118
281 118
282 118
283 118
284 118
285 118
286 118
287 118
288 118
289 118
290 118
291 118
292 118
293 118
294 118
295 118
296 118
297 118
298 118
299 118
300 118
301 118
302 118
303 118
304 118
305 118
306 118
307 118
308 118
309 118
310 118
311 118
312 118
313 118
314 118
315 118
316 118
317 118
318 118
319 118
320 118
321 118
322 118
323 118
324 118
325 118
326 118
327 118
328 118
329 118
330 118
331 118
332 118
333 118
334 118
335 118
336 118
337 118
338 118
339 118
340 118
341 118
342 118
343 118
344 118
345 118
346 118
347 118
348 118
199 119
200 119
201 119
202 119
203 119
204 119
205 119
206 119
207 119
208 119
209 119
210 119
211 119
212 119
213 119
214 119
215 119
216 119
217 119
218 119
219 119
220 119
221 119
222 119
223 119
224 119
225 119
226 119
227 119
228 119
229 119
230 119
231 119
232 119
233 119
234 119
235 119
236 119
237 119
238 119
239 119
240 119
241 119
242 119
243 119
244 119
245 119
246 119
247 119
248 119
249 119
250 119
251 119
252 119
253 119
254 119
255 119
256 119
257 119
258 119
259 119
260 119
261 119
262 119
263 119
264 119
265 119
266 119
267 119
268 119
269 119
270 119
271 119
272 119
273 119
274 119
275 119
276 119
277 119
278 119
279 119
280 119
281 119
282 119
283 119
284 119
285 119
286 119
287 119
288 119
289 119
290 119
291 119
292 119
293 119
294 119
295 119
296 119
297 119
298 119
299 119
300 119
301 119
302 119
303 119
304 119
305 119
306 119
307 119
308 119
309 119
310 119
311 119
312 119
313 119
314 119
315 119
316 119
317 119
318 119
319 119
320 119
321 119
322 119
323 119
324 119
325 119
326 119
327 119
328 119
329 119
330 119
331 119
332 119
333 119
334 119
335 119
336 119
337 119
338 119
339 119
340 119
341 119
342 119
343 119
344 119
345 119
346 119
347 119
348 119
199 120
200 120
201 120
202 120
203 120
204 120
205 120
206 120
207 120
208 120
209 120
210 120
211 120
212 120
213 120
214 120
215 120
216 120
217 120
218 120
219 120
220 120
221 120
222 120
223 120
224 120
225 120
226 120
227 120
228 120
229 120
230 120
231 120
232 120
233 120
234 120
235 120
236 120
237 120
238 120
239 120
240 120
241 120
242 120
243 120
244 120
245 120
246 120
247 120
248 120
249 120
250 120
251 120
252 120
253 120
254 120
255 120
256 120
257 120
258 120
259 120
260 120
261 120
262 120
263 120
264 120
265 120
266 120
267 120
268 120
269 120
270 120
271 120
272 120
273 120
274 120
275 120
276 120
277 120
278 120
279 120
280 120
281 120
282 120
283 120
284 120
285 120
286 120
287 120
288 120
289 120
290 120
291 120
292 120
293 120
294 120
295 120
296 120
297 120
298 120
299 120
300 120
301 120
302 120
303 120
304 120
305 120
306 120
307 120
308 120
309 120
310 120
311 120
312 120
313 120
314 120
315 120
316 120
317 120
318 120
319 120
320 120
321 120
322 120
323 120
324 120
325 120
326 120
327 120
328 120
329 120
330 120
331 120
332 120
333 120
334 120
335 120
336 120
337 120
338 120
339 120
340 120
341 120
342 120
343 120
344 120
345 120
346 120
347 120
348 120
373 193
374 193
375 193
376 193
377 193
378 193
379 193
380 193
381 193
382 193
383 193
384 193
385 193
386 193
387 193
388 193
389 193
390 193
391 193
392 193
393 193
394 193
395 193
396 193
397 193
398 193
399 193
400 193
401 193
402 193
403 193
404 193
405 193
406 193
407 193
408 193
409 193
410 193
411 193
412 193
413 193
414 193
415 193
416 193
417 193
418 193
419 193
420 193
421 193
422 193
423 193
424 193
425 193
426 193
427 193
428 193
429 193
430 193
431 193
432 193
433 193
434 193
435 193
436 193
437 193
438 193
439 193
440 193
441 193
442 193
443 193
444 193
445 193
446 193
447 193
448 193
449 193
450 193
451 193
452 193
453 193
454 193
455 193
456 193
457 193
458 193
459 193
460 193
461 193
462 193
463 193
464 193
465 193
466 193
467 193
468 193
469 193
470 193
471 193
472 193
473 193
474 193
475 193
476 193
477 193
478 193
479 193
480 193
481 193
482 193
483 193
484 193
485 193
486 193
487 193
488 193
489 193
490 193
491 193
492 193
493 193
494 193
495 193
496 193
497 193
498 193
499 193
500 193
501 193
502 193
503 193
504 193
505 193
506 193
507 193
508 193
509 193
510 193
511 193
512 193
513 193
514 193
515 193
516 193
517 193
518 193
519 193
520 193
521 193
522 193
523 193
524 193
525 193
526 193
527 193
528 193
529 193
373 194
374 194
375 194
376 194
377 194
378 194
379 194
380 194
381 194
382 194
383 194
384 194
385 194
386 194
387 194
388 194
389 194
390 194
391 194
392 194
393 194
394 194
395 194
396 194
397 194
398 194
399 194
400 194
401 194
402 194
403 194
404 194
405 194
406 194
407 194
408 194
409 194
410 194
411 194
412 194
413 194
414 194
415 194
416 194
417 194
418 194
419 194
420 194
421 194
422 194
423 194
424 194
425 194
426 194
427 194
428 194
429 194
430 194
431 194
432 194
433 194
434 194
435 194
436 194
437 194
438 194
439 194
440 194
441 194
442 194
443 194
444 194
445 194
446 194
447 194
448 194
449 194
450 194
451 194
452 194
453 194
454 194
455 194
456 194
457 194
458 194
459 194
460 194
461 194
462 194
463 194
464 194
465 194
466 194
467 194
468 194
469 194
470 194
471 194
472 194
473 194
474 194
475 194
476 194
477 194
478 194
479 194
480 194
481 194
482 194
483 194
484 194
485 194
486 194
487 194
488 194
489 194
490 194
491 194
492 194
493 194
494 194
495 194
496 194
497 194
498 194
499 194
500 194
501 194
502 194
503 194
504 194
505 194
506 194
507 194
508 194
509 194
510 194
511 194
512 194
513 194
514 194
515 194
516 194
517 194
518 194
519 194
520 194
521 194
522 194
523 194
524 194
525 194
526 194
527 194
528 194
529 194
373 195
374 195
375 195
376 195
377 195
378 195
379 195
380 195
381 195
382 195
383 195
384 195
385 195
386 195
387 195
388 195
389 195
390 195
391 195
392 195
393 195
394 195
395 195
396 195
397 195
398 195
399 195
400 195
401 195
402 195
403 195
404 195
405 195
406 195
407 195
408 195
409 195
410 195
411 195
412 195
413 195
414 195
415 195
416 195
417 195
418 195
419 195
420 195
421 195
422 195
423 195
424 195
425 195
426 195
427 195
428 195
429 195
430 195
431 195
432 195
433 195
434 195
435 195
436 195
437 195
438 195
439 195
440 195
441 195
442 195
443 195
444 195
445 195
446 195
447 195
448 195
449 195
450 195
451 195
452 195
453 195
454 195
455 195
456 195
457 195
458 195
459 195
460 195
461 195
462 195
463 195
464 195
465 195
466 195
467 195
468 195
469 195
470 195
471 195
472 195
473 195
474 195
475 195
476 195
477 195
478 195
479 195
480 195
481 195
482 195
483 195
484 195
485 195
486 195
487 195
488 195
489 195
490 195
491 195
492 195
493 195
494 195
495 195
496 195
497 195
498 195
499 195
500 195
501 195
502 195
503 195
504 195
505 195
506 195
507 195
508 195
509 195
510 195
511 195
512 195
513 195
514 195
515 195
516 195
517 195
518 195
519 195
520 195
521 195
522 195
523 195
524 195
525 195
526 195
527 195
528 195
529 195
373 196
374 196
375 196
376 196
377 196
378 196
379 196
380 196
381 196
382 196
383 196
384 196
385 196
386 196
387 196
388 196
389 196
390 196
391 196
392 196
393 196
394 196
395 196
396 196
397 196
398 196
399 196
400 196
401 196
402 196
403 196
404 196
405 196
406 196
407 196
408 196
409 196
410 196
411 196
412 196
413 196
414 196
415 196
416 196
417 196
418 196
419 196
420 196
421 196
422 196
423 196
424 196
425 196
426 196
427 196
428 196
429 196
430 196
431 196
432 196
433 196
434 196
435 196
436 196
437 196
438 196
439 196
440 196
441 196
442 196
443 196
444 196
445 196
446 196
447 196
448 196
449 196
450 196
451 196
452 196
453 196
454 196
455 196
456 196
457 196
458 196
459 196
460 196
461 196
462 196
463 196
464 196
465 196
466 196
467 196
468 196
469 196
470 196
471 196
472 196
473 196
474 196
475 196
476 196
477 196
478 196
479 196
480 196
481 196
482 196
483 196
484 196
485 196
486 196
487 196
488 196
489 196
490 196
491 196
492 196
493 196
494 196
495 196
496 196
497 196
498 196
499 196
500 196
501 196
502 196
503 196
504 196
505 196
506 196
507 196
508 196
509 196
510 196
511 196
512 196
513 196
514 196
515 196
516 196
517 196
518 196
519 196
520 196
521 196
522 196
523 196
524 196
525 196
526 196
527 196
528 196
529 196
373 197
374 197
375 197
376 197
377 197
378 197
379 197
380 197
381 197
382 197
383 197
384 197
385 197
386 197
387 197
388 197
389 197
390 197
391 197
392 197
393 197
394 197
395 197
396 197
397 197
398 197
399 197
400 197
401 197
402 197
403 197
404 197
405 197
406 197
407 197
408 197
409 197
410 197
411 197
412 197
413 197
414 197
415 197
416 197
417 197
418 197
419 197
420 197
421 197
422 197
423 197
424 197
425 197
426 197
427 197
428 197
429 197
430 197
431 197
432 197
433 197
434 197
435 197
436 197
437 197
438 197
439 197
440 197
441 197
442 197
443 197
444 197
445 197
446 197
447 197
448 197
449 197
450 197
451 197
452 197
453 197
454 197
455 197
456 197
457 197
458 197
459 197
460 197
461 197
462 197
463 197
464 197
465 197
466 197
467 197
468 197
469 197
470 197
471 197
472 197
473 197
474 197
475 197
476 197
477 197
478 197
479 197
480 197
481 197
482 197
483 197
484 197
485 197
486 197
487 197
488 197
489 197
490 197
491 197
492 197
493 197
494 197
495 197
496 197
497 197
498 197
499 197
500 197
501 197
502 197
503 197
504 197
505 197
506 197
507 197
508 197
509 197
510 197
511 197
512 197
513 197
514 197
515 197
516 197
517 197
518 197
519 197
520 197
521 197
522 197
523 197
524 197
525 197
526 197
527 197
528 197
529 197
373 198
374 198
375 198
376 198
377 198
378 198
379 198
380 198
381 198
382 198
383 198
384 198
385 198
386 198
387 198
388 198
389 198
390 198
391 198
392 198
393 198
394 198
395 198
396 198
397 198
398 198
399 198
400 198
401 198
402 198
403 198
404 198
405 198
406 198
407 198
408 198
409 198
410 198
411 198
412 198
413 198
414 198
415 198
416 198
417 198
418 198
419 198
420 198
421 198
422 198
423 198
424 198
425 198
426 198
427 198
428 198
429 198
430 198
431 198
432 198
433 198
434 198
435 198
436 198
437 198
438 198
439 198
440 198
441 198
442 198
443 198
444 198
445 198
446 198
447 198
448 198
449 198
450 198
451 198
452 198
453 198
454 198
455 198
456 198
457 198
458 198
459 198
460 198
461 198
462 198
463 198
464 198
465 198
466 198
467 198
468 198
469 198
470 198
471 198
472 198
473 198
474 198
475 198
476 198
477 198
478 198
479 198
480 198
481 198
482 198
483 198
484 198
485 198
486 198
487 198
488 198
489 198
490 198
491 198
492 198
493 198
494 198
495 198
496 198
497 198
498 198
499 198
500 198
501 198
502 198
503 198
504 198
505 198
506 198
507 198
508 198
509 198
510 198
511 198
512 198
513 198
514 198
515 198
516 198
517 198
518 198
519 198
520 198
521 198
522 198
523 198
524 198
525 198
526 198
527 198
528 198
529 198
373 199
374 199
375 199
376 199
377 199
378 199
379 199
380 199
381 199
382 199
383 199
384 199
385 199
386 199
387 199
388 199
389 199
390 199
391 199
392 199
393 199
394 199
395 199
396 199
397 199
398 199
399 199
400 199
401 199
402 199
403 199
404 199
405 199
406 199
407 199
408 199
409 199
410 199
411 199
412 199
413 199
414 199
415 199
416 199
417 199
418 199
419 199
420 199
421 199
422 199
423 199
424 199
425 199
426 199
427 199
428 199
429 199
430 199
431 199
432 199
433 199
434 199
435 199
436 199
437 199
438 199
439 199
440 199
441 199
442 199
443 199
444 199
445 199
446 199
447 199
448 199
449 199
450 199
451 199
452 199
453 199
454 199
455 199
456 199
457 199
458 199
459 199
460 199
461 199
462 199
463 199
464 199
465 199
466 199
467 199
468 199
469 199
470 199
471 199
472 199
473 199
474 199
475 199
476 199
477 199
478 199
479 199
480 199
481 199
482 199
483 199
484 199
485 199
486 199
487 199
488 199
489 199
490 199
491 199
492 199
493 199
494 199
495 199
496 199
497 199
498 199
499 199
500 199
501 199
502 199
503 199
504 199
505 199
506 199
507 199
508 199
509 199
510 199
511 199
512 199
513 199
514 199
515 199
516 199
517 199
518 199
519 199
520 199
521 199
522 199
523 199
524 199
525 199
526 199
527 199
528 199
529 199
373 200
374 200
375 200
376 200
377 200
378 200
379 200
380 200
381 200
382 200
383 200
384 200
385 200
386 200
387 200
388 200
389 200
390 200
391 200
392 200
393 200
394 200
395 200
396 200
397 200
398 200
399 200
400 200
401 200
402 200
403 200
404 200
405 200
406 200
407 200
408 200
409 200
410 200
411 200
412 200
413 200
414 200
415 200
416 200
417 200
418 200
419 200
420 200
421 200
422 200
423 200
424 200
425 200
426 200
427 200
428 200
429 200
430 200
431 200
432 200
433 200
434 200
435 200
436 200
437 200
438 200
439 200
440 200
441 200
442 200
443 200
444 200
445 200
446 200
447 200
448 200
449 200
450 200
451 200
452 200
453 200
454 200
455 200
456 200
457 200
458 200
459 200
460 200
461 200
462 200
463 200
464 200
465 200
466 200
467 200
468 200
469 200
470 200
471 200
472 200
473 200
474 200
475 200
476 200
477 200
478 200
479 200
480 200
481 200
482 200
483 200
484 200
485 200
486 200
487 200
488 200
489 200
490 200
491 200
492 200
493 200
494 200
495 200
496 200
497 200
498 200
499 200
500 200
501 200
502 200
503 200
504 200
505 200
506 200
507 200
508 200
509 200
510 200
511 200
512 200
513 200
514 200
515 200
516 200
517 200
518 200
519 200
520 200
521 200
522 200
523 200
524 200
525 200
526 200
527 200
528 200
529 200
373 201
374 201
375 201
376 201
377 201
378 201
379 201
380 201
381 201
382 201
383 201
384 201
385 201
386 201
387 201
388 201
389 201
390 201
391 201
392 201
393 201
394 201
395 201
396 201
397 201
398 201
399 201
400 201
401 201
402 201
403 201
404 201
405 201
406 201
407 201
408 201
409 201
410 201
411 201
412 201
413 201
414 201
415 201
416 201
417 201
418 201
419 201
420 201
421 201
422 201
423 201
424 201
425 201
426 201
427 201
428 201
429 201
430 201
431 201
432 201
433 201
434 201
435 201
436 201
437 201
438 201
439 201
440 201
441 201
442 201
443 201
444 201
445 201
446 201
447 201
448 201
449 201
450 201
451 201
452 201
453 201
454 201
455 201
456 201
457 201
458 201
459 201
460 201
461 201
462 201
463 201
464 201
465 201
466 201
467 201
468 201
469 201
470 201
471 201
472 201
473 201
474 201
475 201
476 201
477 201
478 201
479 201
480 201
481 201
482 201
483 201
484 201
485 201
486 201
487 201
488 201
489 201
490 201
491 201
492 201
493 201
494 201
495 201
496 201
497 201
498 201
499 201
500 201
501 201
502 201
503 201
504 201
505 201
506 201
507 201
508 201
509 201
510 201
511 201
512 201
513 201
514 201
515 201
516 201
517 201
518 201
519 201
520 201
521 201
522 201
523 201
524 201
525 201
526 201
527 201
528 201
529 201
373 202
374 202
375 202
376 202
377 202
378 202
379 202
380 202
381 202
382 202
383 202
384 202
385 202
386 202
387 202
388 202
389 202
390 202
391 202
392 202
393 202
394 202
395 202
396 202
397 202
398 202
399 202
400 202
401 202
402 202
403 202
404 202
405 202
406 202
407 202
408 202
409 202
410 202
411 202
412 202
413 202
414 202
415 202
416 202
417 202
418 202
419 202
420 202
421 202
422 202
423 202
424 202
425 202
426 202
427 202
428 202
429 202
430 202
431 202
432 202
433 202
434 202
435 202
436 202
437 202
438 202
439 202
440 202
441 202
442 202
443 202
444 202
445 202
446 202
447 202
448 202
449 202
450 202
451 202
452 202
453 202
454 202
455 202
456 202
457 202
458 202
459 202
460 202
461 202
462 202
463 202
464 202
465 202
466 202
467 202
468 202
469 202
470 202
471 202
472 202
473 202
474 202
475 202
476 202
477 202
478 202
479 202
480 202
481 202
482 202
483 202
484 202
485 202
486 202
487 202
488 202
489 202
490 202
491 202
492 202
493 202
494 202
495 202
496 202
497 202
498 202
499 202
500 202
501 202
502 202
503 202
504 202
505 202
506 202
507 202
508 202
509 202
510 202
511 202
512 202
513 202
514 202
515 202
516 202
517 202
518 202
519 202
520 202
521 202
522 202
523 202
524 202
525 202
526 202
527 202
528 202
529 202
373 203
374 203
375 203
376 203
377 203
378 203
379 203
380 203
381 203
382 203
383 203
384 203
385 203
386 203
387 203
388 203
389 203
390 203
391 203
392 203
393 203
394 203
395 203
396 203
397 203
398 203
399 203
400 203
401 203
402 203
403 203
404 203
405 203
406 203
407 203
408 203
409 203
410 203
411 203
412 203
413 203
414 203
415 203
416 203
417 203
418 203
419 203
420 203
421 203
422 203
423 203
424 203
425 203
426 203
427 203
428 203
429 203
430 203
431 203
432 203
433 203
434 203
435 203
436 203
437 203
438 203
439 203
440 203
441 203
442 203
443 203
444 203
445 203
446 203
447 203
448 203
449 203
450 203
451 203
452 203
453 203
454 203
455 203
456 203
457 203
458 203
459 203
460 203
461 203
462 203
463 203
464 203
465 203
466 203
467 203
468 203
469 203
470 203
471 203
472 203
473 203
474 203
475 203
476 203
477 203
478 203
479 203
480 203
481 203
482 203
483 203
484 203
485 203
486 203
487 203
488 203
489 203
490 203
491 203
492 203
493 203
494 203
495 203
496 203
497 203
498 203
499 203
500 203
501 203
502 203
503 203
504 203
505 203
506 203
507 203
508 203
509 203
510 203
511 203
512 203
513 203
514 203
515 203
516 203
517 203
518 203
519 203
520 203
521 203
522 203
523 203
524 203
525 203
526 203
527 203
528 203
529 203
373 204
374 204
375 204
376 204
377 204
378 204
379 204
380 204
381 204
382 204
383 204
384 204
385 204
386 204
387 204
388 204
389 204
390 204
391 204
392 204
393 204
394 204
395 204
396 204
397 204
398 204
399 204
400 204
401 204
402 204
403 204
404 204
405 204
406 204
407 204
408 204
409 204
410 204
411 204
412 204
413 204
414 204
415 204
416 204
417 204
418 204
419 204
420 204
421 204
422 204
423 204
424 204
425 204
426 204
427 204
428 204
429 204
430 204
431 204
432 204
433 204
434 204
435 204
436 204
437 204
438 204
439 204
440 204
441 204
442 204
443 204
444 204
445 204
446 204
447 204
448 204
449 204
450 204
451 204
452 204
453 204
454 204
455 204
456 204
457 204
458 204
459 204
460 204
461 204
462 204
463 204
464 204
465 204
466 204
467 204
468 204
469 204
470 204
471 204
472 204
473 204
474 204
475 204
476 204
477 204
478 204
479 204
480 204
481 204
482 204
483 204
484 204
485 204
486 204
487 204
488 204
489 204
490 204
491 204
492 204
493 204
494 204
495 204
496 204
497 204
498 204
499 204
500 204
501 204
502 204
503 204
504 204
505 204
506 204
507 204
508 204
509 204
510 204
511 204
512 204
513 204
514 204
515 204
516 204
517 204
518 204
519 204
520 204
521 204
522 204
523 204
524 204
525 204
526 204
527 204
528 204
529 204
373 205
374 205
375 205
376 205
377 205
378 205
379 205
380 205
381 205
382 205
383 205
384 205
385 205
386 205
387 205
388 205
389 205
390 205
391 205
392 205
393 205
394 205
395 205
396 205
397 205
398 205
399 205
400 205
401 205
402 205
403 205
404 205
405 205
406 205
407 205
408 205
409 205
410 205
411 205
412 205
413 205
414 205
415 205
416 205
417 205
418 205
419 205
420 205
421 205
422 205
423 205
424 205
425 205
426 205
427 205
428 205
429 205
430 205
431 205
432 205
433 205
434 205
435 205
436 205
437 205
438 205
439 205
440 205
441 205
442 205
443 205
444 205
445 205
446 205
447 205
448 205
449 205
450 205
451 205
452 205
453 205
454 205
455 205
456 205
457 205
458 205
459 205
460 205
461 205
462 205
463 205
464 205
465 205
466 205
467 205
468 205
469 205
470 205
471 205
472 205
473 205
474 205
475 205
476 205
477 205
478 205
479 205
480 205
481 205
482 205
483 205
484 205
485 205
486 205
487 205
488 205
489 205
490 205
491 205
492 205
493 205
494 205
495 205
496 205
497 205
498 205
499 205
500 205
501 205
502 205
503 205
504 205
505 205
506 205
507 205
508 205
509 205
510 205
511 205
512 205
513 205
514 205
515 205
516 205
517 205
518 205
519 205
520 205
521 205
522 205
523 205
524 205
525 205
526 205
527 205
528 205
529 205
373 206
374 206
375 206
376 206
377 206
378 206
379 206
380 206
381 206
382 206
383 206
384 206
385 206
386 206
387 206
388 206
389 206
390 206
391 206
392 206
393 206
394 206
395 206
396 206
397 206
398 206
399 206
400 206
401 206
402 206
403 206
404 206
405 206
406 206
407 206
408 206
409 206
410 206
411 206
412 206
413 206
414 206
415 206
416 206
417 206
418 206
419 206
420 206
421 206
422 206
423 206
424 206
425 206
426 206
427 206
428 206
429 206
430 206
431 206
432 206
433 206
434 206
435 206
436 206
437 206
438 206
439 206
440 206
441 206
442 206
443 206
444 206
445 206
446 206
447 206
448 206
449 206
450 206
451 206
452 206
453 206
454 206
455 206
456 206
457 206
458 206
459 206
460 206
461 206
462 206
463 206
464 206
465 206
466 206
467 206
468 206
469 206
470 206
471 206
472 206
473 206
474 206
475 206
476 206
477 206
478 206
479 206
480 206
481 206
482 206
483 206
484 206
485 206
486 206
487 206
488 206
489 206
490 206
491 206
492 206
493 206
494 206
495 206
496 206
497 206
498 206
499 206
500 206
501 206
502 206
503 206
504 206
505 206
506 206
507 206
508 206
509 206
510 206
511 206
512 206
513 206
514 206
515 206
516 206
517 206
518 206
519 206
520 206
521 206
522 206
523 206
524 206
525 206
526 206
527 206
528 206
529 206
373 207
374 207
375 207
376 207
377 207
378 207
379 207
380 207
381 207
382 207
383 207
384 207
385 207
386 207
387 207
388 207
389 207
390 207
391 207
392 207
393 207
394 207
395 207
396 207
397 207
398 207
399 207
400 207
401 207
402 207
403 207
404 207
405 207
406 207
407 207
408 207
409 207
410 207
411 207
412 207
413 207
414 207
415 207
416 207
417 207
418 207
419 207
420 207
421 207
422 207
423 207
424 207
425 207
426 207
427 207
428 207
429 207
430 207
431 207
432 207
433 207
434 207
435 207
436 207
437 207
438 207
439 207
440 207
441 207
442 207
443 207
444 207
445 207
446 207
447 207
448 207
449 207
450 207
451 207
452 207
453 207
454 207
455 207
456 207
457 207
458 207
459 207
460 207
461 207
462 207
463 207
464 207
465 207
466 207
467 207
468 207
469 207
470 207
471 207
472 207
473 207
474 207
475 207
476 207
477 207
478 207
479 207
480 207
481 207
482 207
483 207
484 207
485 207
486 207
487 207
488 207
489 207
490 207
491 207
492 207
493 207
494 207
495 207
496 207
497 207
498 207
499 207
500 207
501 207
502 207
503 207
504 207
505 207
506 207
507 207
508 207
509 207
510 207
511 207
512 207
513 207
514 207
515 207
516 207
517 207
518 207
519 207
520 207
521 207
522 207
523 207
524 207
525 207
526 207
527 207
528 207
529 207
373 208
374 208
375 208
376 208
377 208
378 208
379 208
380 208
381 208
382 208
383 208
384 208
385 208
386 208
387 208
388 208
389 208
390 208
391 208
392 208
393 208
394 208
395 208
396 208
397 208
398 208
399 208
400 208
401 208
402 208
403 208
404 208
405 208
406 208
407 208
408 208
409 208
410 208
411 208
412 208
413 208
414 208
415 208
416 208
417 208
418 208
419 208
420 208
421 208
422 208
423 208
424 208
425 208
426 208
427 208
428 208
429 208
430 208
431 208
432 208
433 208
434 208
435 208
436 208
437 208
438 208
439 208
440 208
441 208
442 208
443 208
444 208
445 208
446 208
447 208
448 208
449 208
450 208
451 208
452 208
453 208
454 208
455 208
456 208
457 208
458 208
459 208
460 208
461 208
462 208
463 208
464 208
465 208
466 208
467 208
468 208
469 208
470 208
471 208
472 208
473 208
474 208
475 208
476 208
477 208
478 208
479 208
480 208
481 208
482 208
483 208
484 208
485 208
486 208
487 208
488 208
489 208
490 208
491 208
492 208
493 208
494 208
495 208
496 208
497 208
498 208
499 208
500 208
501 208
502 208
503 208
504 208
505 208
506 208
507 208
508 208
509 208
510 208
511 208
512 208
513 208
514 208
515 208
516 208
517 208
518 208
519 208
520 208
521 208
522 208
523 208
524 208
525 208
526 208
527 208
528 208
529 208
373 209
374 209
375 209
376 209
377 209
378 209
379 209
380 209
381 209
382 209
383 209
384 209
385 209
386 209
387 209
388 209
389 209
390 209
391 209
392 209
393 209
394 209
395 209
396 209
397 209
398 209
399 209
400 209
401 209
402 209
403 209
404 209
405 209
406 209
407 209
408 209
409 209
410 209
411 209
412 209
413 209
414 209
415 209
416 209
417 209
418 209
419 209
420 209
421 209
422 209
423 209
424 209
425 209
426 209
427 209
428 209
429 209
430 209
431 209
432 209
433 209
434 209
435 209
436 209
437 209
438 209
439 209
440 209
441 209
442 209
443 209
444 209
445 209
446 209
447 209
448 209
449 209
450 209
451 209
452 209
453 209
454 209
455 209
456 209
457 209
458 209
459 209
460 209
461 209
462 209
463 209
464 209
465 209
466 209
467 209
468 209
469 209
470 209
471 209
472 209
473 209
474 209
475 209
476 209
477 209
478 209
479 209
480 209
481 209
482 209
483 209
484 209
485 209
486 209
487 209
488 209
489 209
490 209
491 209
492 209
493 209
494 209
495 209
496 209
497 209
498 209
499 209
500 209
501 209
502 209
503 209
504 209
505 209
506 209
507 209
508 209
509 209
510 209
511 209
512 209
513 209
514 209
515 209
516 209
517 209
518 209
519 209
520 209
521 209
522 209
523 209
524 209
525 209
526 209
527 209
528 209
529 209
373 210
374 210
375 210
376 210
377 210
378 210
379 210
380 210
381 210
382 210
383 210
384 210
385 210
386 210
387 210
388 210
389 210
390 210
391 210
392 210
393 210
394 210
395 210
396 210
397 210
398 210
399 210
400 210
401 210
402 210
403 210
404 210
405 210
406 210
407 210
408 210
409 210
410 210
411 210
412 210
413 210
414 210
415 210
416 210
417 210
418 210
419 210
420 210
421 210
422 210
423 210
424 210
425 210
426 210
427 210
428 210
429 210
430 210
431 210
432 210
433 210
434 210
435 210
436 210
437 210
438 210
439 210
440 210
441 210
442 210
443 210
444 210
445 210
446 210
447 210
448 210
449 210
450 210
451 210
452 210
453 210
454 210
455 210
456 210
457 210
458 210
459 210
460 210
461 210
462 210
463 210
464 210
465 210
466 210
467 210
468 210
469 210
470 210
471 210
472 210
473 210
474 210
475 210
476 210
477 210
478 210
479 210
480 210
481 210
482 210
483 210
484 210
485 210
486 210
487 210
488 210
489 210
490 210
491 210
492 210
493 210
494 210
495 210
496 210
497 210
498 210
499 210
500 210
501 210
502 210
503 210
504 210
505 210
506 210
507 210
508 210
509 210
510 210
511 210
512 210
513 210
514 210
515 210
516 210
517 210
518 210
519 210
520 210
521 210
522 210
523 210
524 210
525 210
526 210
527 210
528 210
529 210
373 211
374 211
375 211
376 211
377 211
378 211
379 211
380 211
381 211
382 211
383 211
384 211
385 211
386 211
387 211
388 211
389 211
390 211
391 211
392 211
393 211
394 211
395 211
396 211
397 211
398 211
399 211
400 211
401 211
402 211
403 211
404 211
405 211
406 211
407 211
408 211
409 211
410 211
411 211
412 211
413 211
414 211
415 211
416 211
417 211
418 211
419 211
420 211
421 211
422 211
423 211
424 211
425 211
426 211
427 211
428 211
429 211
430 211
431 211
432 211
433 211
434 211
435 211
436 211
437 211
438 211
439 211
440 211
441 211
442 211
443 211
444 211
445 211
446 211
447 211
448 211
449 211
450 211
451 211
452 211
453 211
454 211
455 211
456 211
457 211
458 211
459 211
460 211
461 211
462 211
463 211
464 211
465 211
466 211
467 211
468 211
469 211
470 211
471 211
472 211
473 211
474 211
475 211
476 211
477 211
478 211
479 211
480 211
481 211
482 211
483 211
484 211
485 211
486 211
487 211
488 211
489 211
490 211
491 211
492 211
493 211
494 211
495 211
496 211
497 211
498 211
499 211
500 211
501 211
502 211
503 211
504 211
505 211
506 211
507 211
508 211
509 211
510 211
511 211
512 211
513 211
514 211
515 211
516 211
517 211
518 211
519 211
520 211
521 211
522 211
523 211
524 211
525 211
526 211
527 211
528 211
529 211
373 212
374 212
375 212
376 212
377 212
378 212
379 212
380 212
381 212
382 212
383 212
384 212
385 212
386 212
387 212
388 212
389 212
390 212
391 212
392 212
393 212
394 212
395 212
396 212
397 212
398 212
399 212
400 212
401 212
402 212
403 212
404 212
405 212
406 212
407 212
408 212
409 212
410 212
411 212
412 212
413 212
414 212
415 212
416 212
417 212
418 212
419 212
420 212
421 212
422 212
423 212
424 212
425 212
426 212
427 212
428 212
429 212
430 212
431 212
432 212
433 212
434 212
435 212
436 212
437 212
438 212
439 212
440 212
441 212
442 212
443 212
444 212
445 212
446 212
447 212
448 212
449 212
450 212
451 212
452 212
453 212
454 212
455 212
456 212
457 212
458 212
459 212
460 212
461 212
462 212
463 212
464 212
465 212
466 212
467 212
468 212
469 212
470 212
471 212
472 212
473 212
474 212
475 212
476 212
477 212
478 212
479 212
480 212
481 212
482 212
483 212
484 212
485 212
486 212
487 212
488 212
489 212
490 212
491 212
492 212
493 212
494 212
495 212
496 212
497 212
498 212
499 212
500 212
501 212
502 212
503 212
504 212
505 212
506 212
507 212
508 212
509 212
510 212
511 212
512 212
513 212
514 212
515 212
516 212
517 212
518 212
519 212
520 212
521 212
522 212
523 212
524 212
525 212
526 212
527 212
528 212
529 212
373 213
374 213
375 213
376 213
377 213
378 213
379 213
380 213
381 213
382 213
383 213
384 213
385 213
386 213
387 213
388 213
389 213
390 213
391 213
392 213
393 213
394 213
395 213
396 213
397 213
398 213
399 213
400 213
401 213
402 213
403 213
404 213
405 213
406 213
407 213
408 213
409 213
410 213
411 213
412 213
413 213
414 213
415 213
416 213
417 213
418 213
419 213
420 213
421 213
422 213
423 213
424 213
425 213
426 213
427 213
428 213
429 213
430 213
431 213
432 213
433 213
434 213
435 213
436 213
437 213
438 213
439 213
440 213
441 213
442 213
443 213
444 213
445 213
446 213
447 213
448 213
449 213
450 213
451 213
452 213
453 213
454 213
455 213
456 213
457 213
458 213
459 213
460 213
461 213
462 213
463 213
464 213
465 213
466 213
467 213
468 213
469 213
470 213
471 213
472 213
473 213
474 213
475 213
476 213
477 213
478 213
479 213
480 213
481 213
482 213
483 213
484 213
485 213
486 213
487 213
488 213
489 213
490 213
491 213
492 213
493 213
494 213
495 213
496 213
497 213
498 213
499 213
500 213
501 213
502 213
503 213
504 213
505 213
506 213
507 213
508 213
509 213
510 213
511 213
512 213
513 213
514 213
515 213
516 213
517 213
518 213
519 213
520 213
521 213
522 213
523 213
524 213
525 213
526 213
527 213
528 213
529 213
373 214
374 214
375 214
376 214
377 214
378 214
379 214
380 214
381 214
382 214
383 214
384 214
385 214
386 214
387 214
388 214
389 214
390 214
391 214
392 214
393 214
394 214
395 214
396 214
397 214
398 214
399 214
400 214
401 214
402 214
403 214
404 214
405 214
406 214
407 214
408 214
409 214
410 214
411 214
412 214
413 214
414 214
415 214
416 214
417 214
418 214
419 214
420 214
421 214
422 214
423 214
424 214
425 214
426 214
427 214
428 214
429 214
430 214
431 214
432 214
433 214
434 214
435 214
436 214
437 214
438 214
439 214
440 214
441 214
442 214
443 214
444 214
445 214
446 214
447 214
448 214
449 214
450 214
451 214
452 214
453 214
454 214
455 214
456 214
457 214
458 214
459 214
460 214
461 214
462 214
463 214
464 214
465 214
466 214
467 214
468 214
469 214
470 214
471 214
472 214
473 214
474 214
475 214
476 214
477 214
478 214
479 214
480 214
481 214
482 214
483 214
484 214
485 214
486 214
487 214
488 214
489 214
490 214
491 214
492 214
493 214
494 214
495 214
496 214
497 214
498 214
499 214
500 214
501 214
502 214
503 214
504 214
505 214
506 214
507 214
508 214
509 214
510 214
511 214
512 214
513 214
514 214
515 214
516 214
517 214
518 214
519 214
520 214
521 214
522 214
523 214
524 214
525 214
526 214
527 214
528 214
529 214
373 215
374 215
375 215
376 215
377 215
378 215
379 215
380 215
381 215
382 215
383 215
384 215
385 215
386 215
387 215
388 215
389 215
390 215
391 215
392 215
393 215
394 215
395 215
396 215
397 215
398 215
399 215
400 215
401 215
402 215
403 215
404 215
405 215
406 215
407 215
408 215
409 215
410 215
411 215
412 215
413 215
414 215
415 215
416 215
417 215
418 215
419 215
420 215
421 215
422 215
423 215
424 215
425 215
426 215
427 215
428 215
429 215
430 215
431 215
432 215
433 215
434 215
435 215
436 215
437 215
438 215
439 215
440 215
441 215
442 215
443 215
444 215
445 215
446 215
447 215
448 215
449 215
450 215
451 215
452 215
453 215
454 215
455 215
456 215
457 215
458 215
459 215
460 215
461 215
462 215
463 215
464 215
465 215
466 215
467 215
468 215
469 215
470 215
471 215
472 215
473 215
474 215
475 215
476 215
477 215
478 215
479 215
480 215
481 215
482 215
483 215
484 215
485 215
486 215
487 215
488 215
489 215
490 215
491 215
492 215
493 215
494 215
495 215
496 215
497 215
498 215
499 215
500 215
501 215
502 215
503 215
504 215
505 215
506 215
507 215
508 215
509 215
510 215
511 215
512 215
513 215
514 215
515 215
516 215
517 215
518 215
519 215
520 215
521 215
522 215
523 215
524 215
525 215
526 215
527 215
528 215
529 215
373 216
374 216
375 216
376 216
377 216
378 216
379 216
380 216
381 216
382 216
383 216
384 216
385 216
386 216
387 216
388 216
389 216
390 216
391 216
392 216
393 216
394 216
395 216
396 216
397 216
398 216
399 216
400 216
401 216
402 216
403 216
404 216
405 216
406 216
407 216
408 216
409 216
410 216
411 216
412 216
413 216
414 216
415 216
416 216
417 216
418 216
419 216
420 216
421 216
422 216
423 216
424 216
425 216
426 216
427 216
428 216
429 216
430 216
431 216
432 216
433 216
434 216
435 216
436 216
437 216
438 216
439 216
440 216
441 216
442 216
443 216
444 216
445 216
446 216
447 216
448 216
449 216
450 216
451 216
452 216
453 216
454 216
455 216
456 216
457 216
458 216
459 216
460 216
461 216
462 216
463 216
464 216
465 216
466 216
467 216
468 216
469 216
470 216
471 216
472 216
473 216
474 216
475 216
476 216
477 216
478 216
479 216
480 216
481 216
482 216
483 216
484 216
485 216
486 216
487 216
488 216
489 216
490 216
491 216
492 216
493 216
494 216
495 216
496 216
497 216
498 216
499 216
500 216
501 216
502 216
503 216
504 216
505 216
506 216
507 216
508 216
509 216
510 216
511 216
512 216
513 216
514 216
515 216
516 216
517 216
518 216
519 216
520 216
521 216
522 216
523 216
524 216
525 216
526 216
527 216
528 216
529 216
530 289
531 289
532 289
533 289
534 289
535 289
536 289
537 289
538 289
539 289
540 289
541 289
542 289
543 289
544 289
545 289
546 289
547 289
548 289
549 289
550 289
551 289
552 289
553 289
554 289
555 289
556 289
557 289
558 289
559 289
560 289
561 289
562 289
563 289
564 289
565 289
566 289
567 289
568 289
569 289
570 289
571 289
572 289
573 289
574 289
575 289
576 289
577 289
578 289
579 289
580 289
581 289
582 289
583 289
584 289
585 289
586 289
587 289
588 289
589 289
590 289
591 289
592 289
593 289
594 289
595 289
596 289
597 289
598 289
599 289
530 290
531 290
532 290
533 290
534 290
535 290
536 290
537 290
538 290
539 290
540 290
541 290
542 290
543 290
544 290
545 290
546 290
547 290
548 290
549 290
550 290
551 290
552 290
553 290
554 290
555 290
556 290
557 290
558 290
559 290
560 290
561 290
562 290
563 290
564 290
565 290
566 290
567 290
568 290
569 290
570 290
571 290
572 290
573 290
574 290
575 290
576 290
577 290
578 290
579 290
580 290
581 290
582 290
583 290
584 290
585 290
586 290
587 290
588 290
589 290
590 290
591 290
592 290
593 290
594 290
595 290
596 290
597 290
598 290
599 290
530 291
531 291
532 291
533 291
534 291
535 291
536 291
537 291
538 291
539 291
540 291
541 291
542 291
543 291
544 291
545 291
546 291
547 291
548 291
549 291
550 291
551 291
552 291
553 291
554 291
555 291
556 291
557 291
558 291
559 291
560 291
561 291
562 291
563 291
564 291
565 291
566 291
567 291
568 291
569 291
570 291
571 291
572 291
573 291
574 291
575 291
576 291
577 291
578 291
579 291
580 291
581 291
582 291
583 291
584 291
585 291
586 291
587 291
588 291
589 291
590 291
591 291
592 291
593 291
594 291
595 291
596 291
597 291
598 291
599 291
530 292
531 292
532 292
533 292
534 292
535 292
536 292
537 292
538 292
539 292
540 292
541 292
542 292
543 292
544 292
545 292
546 292
547 292
548 292
549 292
550 292
551 292
552 292
553 292
554 292
555 292
556 292
557 292
558 292
559 292
560 292
561 292
562 292
563 292
564 292
565 292
566 292
567 292
568 292
569 292
570 292
571 292
572 292
573 292
574 292
575 292
576 292
577 292
578 292
579 292
580 292
581 292
582 292
583 292
584 292
585 292
586 292
587 292
588 292
589 292
590 292
591 292
592 292
593 292
594 292
595 292
596 292
597 292
598 292
599 292
530 293
531 293
532 293
533 293
534 293
535 293
536 293
537 293
538 293
539 293
540 293
541 293
542 293
543 293
544 293
545 293
546 293
547 293
548 293
549 293
550 293
551 293
552 293
553 293
554 293
555 293
556 293
557 293
558 293
559 293
560 293
561 293
562 293
563 293
564 293
565 293
566 293
567 293
568 293
569 293
570 293
571 293
572 293
573 293
574 293
575 293
576 293
577 293
578 293
579 293
580 293
581 293
582 293
583 293
584 293
585 293
586 293
587 293
588 293
589 293
590 293
591 293
592 293
593 293
594 293
595 293
596 293
597 293
598 293
599 293
530 294
531 294
532 294
533 294
534 294
535 294
536 294
537 294
538 294
539 294
540 294
541 294
542 294
543 294
544 294
545 294
546 294
547 294
548 294
549 294
550 294
551 294
552 294
553 294
554 294
555 294
556 294
557 294
558 294
559 294
560 294
561 294
562 294
563 294
564 294
565 294
566 294
567 294
568 294
569 294
570 294
571 294
572 294
573 294
574 294
575 294
576 294
577 294
578 294
579 294
580 294
581 294
582 294
583 294
584 294
585 294
586 294
587 294
588 294
589 294
590 294
591 294
592 294
593 294
594 294
595 294
596 294
597 294
598 294
599 294
530 295
531 295
532 295
533 295
534 295
535 295
536 295
537 295
538 295
539 295
540 295
541 295
542 295
543 295
544 295
545 295
546 295
547 295
548 295
549 295
550 295
551 295
552 295
553 295
554 295
555 295
556 295
557 295
558 295
559 295
560 295
561 295
562 295
563 295
564 295
565 295
566 295
567 295
568 295
569 295
570 295
571 295
572 295
573 295
574 295
575 295
576 295
577 295
578 295
579 295
580 295
581 295
582 295
583 295
584 295
585 295
586 295
587 295
588 295
589 295
590 295
591 295
592 295
593 295
594 295
595 295
596 295
597 295
598 295
599 295
530 296
531 296
532 296
533 296
534 296
535 296
536 296
537 296
538 296
539 296
540 296
541 296
542 296
543 296
544 296
545 296
546 296
547 296
548 296
549 296
550 296
551 296
552 296
553 296
554 296
555 296
556 296
557 296
558 296
559 296
560 296
561 296
562 296
563 296
564 296
565 296
566 296
567 296
568 296
569 296
570 296
571 296
572 296
573 296
574 296
575 296
576 296
577 296
578 296
579 296
580 296
581 296
582 296
583 296
584 296
585 296
586 296
587 296
588 296
589 296
590 296
591 296
592 296
593 296
594 296
595 296
596 296
597 296
598 296
599 296
530 297
531 297
532 297
533 297
534 297
535 297
536 297
537 297
538 297
539 297
540 297
541 297
542 297
543 297
544 297
545 297
546 297
547 297
548 297
549 297
550 297
551 297
552 297
553 297
554 297
555 297
556 297
557 297
558 297
559 297
560 297
561 297
562 297
563 297
564 297
565 297
566 297
567 297
568 297
569 297
570 297
571 297
572 297
573 297
574 297
575 297
576 297
577 297
578 297
579 297
580 297
581 297
582 297
583 297
584 297
585 297
586 297
587 297
588 297
589 297
590 297
591 297
592 297
593 297
594 297
595 297
596 297
597 297
598 297
599 297
530 298
531 298
532 298
533 298
534 298
535 298
536 298
537 298
538 298
539 298
540 298
541 298
542 298
543 298
544 298
545 298
546 298
547 298
548 298
549 298
550 298
551 298
552 298
553 298
554 298
555 298
556 298
557 298
558 298
559 298
560 298
561 298
562 298
563 298
564 298
565 298
566 298
567 298
568 298
569 298
570 298
571 298
572 298
573 298
574 298
575 298
576 298
577 298
578 298
579 298
580 298
581 298
582 298
583 298
584 298
585 298
586 298
587 298
588 298
589 298
590 298
591 298
592 298
593 298
594 298
595 298
596 298
597 298
598 298
599 298
530 299
531 299
532 299
533 299
534 299
535 299
536 299
537 299
538 299
539 299
540 299
541 299
542 299
543 299
544 299
545 299
546 299
547 299
548 299
549 299
550 299
551 299
552 299
553 299
554 299
555 299
556 299
557 299
558 299
559 299
560 299
561 299
562 299
563 299
564 299
565 299
566 299
567 299
568 299
569 299
570 299
571 299
572 299
573 299
574 299
575 299
576 299
577 299
578 299
579 299
580 299
581 299
582 299
583 299
584 299
585 299
586 299
587 299
588 299
589 299
590 299
591 299
592 299
593 299
594 299
595 299
596 299
597 299
598 299
599 299
530 300
531 300
532 300
533 300
534 300
535 300
536 300
537 300
538 300
539 300
540 300
541 300
542 300
543 300
544 300
545 300
546 300
547 300
548 300
549 300
550 300
551 300
552 300
553 300
554 300
555 300
556 300
557 300
558 300
559 300
560 300
561 300
562 300
563 300
564 300
565 300
566 300
567 300
568 300
569 300
570 300
571 300
572 300
573 300
574 300
575 300
576 300
577 300
578 300
579 300
580 300
581 300
582 300
583 300
584 300
585 300
586 300
587 300
588 300
589 300
590 300
591 300
592 300
593 300
594 300
595 300
596 300
597 300
598 300
599 300
530 301
531 301
532 301
533 301
534 301
535 301
536 301
537 301
538 301
539 301
540 301
541 301
542 301
543 301
544 301
545 301
546 301
547 301
548 301
549 301
550 301
551 301
552 301
553 301
554 301
555 301
556 301
557 301
558 301
559 301
560 301
561 301
562 301
563 301
564 301
565 301
566 301
567 301
568 301
569 301
570 301
571 301
572 301
573 301
574 301
575 301
576 301
577 301
578 301
579 301
580 301
581 301
582 301
583 301
584 301
585 301
586 301
587 301
588 301
589 301
590 301
591 301
592 301
593 301
594 301
595 301
596 301
597 301
598 301
599 301
530 302
531 302
532 302
533 302
534 302
535 302
536 302
537 302
538 302
539 302
540 302
541 302
542 302
543 302
544 302
545 302
546 302
547 302
548 302
549 302
550 302
551 302
552 302
553 302
554 302
555 302
556 302
557 302
558 302
559 302
560 302
561 302
562 302
563 302
564 302
565 302
566 302
567 302
568 302
569 302
570 302
571 302
572 302
573 302
574 302
575 302
576 302
577 302
578 302
579 302
580 302
581 302
582 302
583 302
584 302
585 302
586 302
587 302
588 302
589 302
590 302
591 302
592 302
593 302
594 302
595 302
596 302
597 302
598 302
599 302
530 303
531 303
532 303
533 303
534 303
535 303
536 303
537 303
538 303
539 303
540 303
541 303
542 303
543 303
544 303
545 303
546 303
547 303
548 303
549 303
550 303
551 303
552 303
553 303
554 303
555 303
556 303
557 303
558 303
559 303
560 303
561 303
562 303
563 303
564 303
565 303
566 303
567 303
568 303
569 303
570 303
571 303
572 303
573 303
574 303
575 303
576 303
577 303
578 303
579 303
580 303
581 303
582 303
583 303
584 303
585 303
586 303
587 303
588 303
589 303
590 303
591 303
592 303
593 303
594 303
595 303
596 303
597 303
598 303
599 303
530 304
531 304
532 304
533 304
534 304
535 304
536 304
537 304
538 304
539 304
540 304
541 304
542 304
543 304
544 304
545 304
546 304
547 304
548 304
549 304
550 304
551 304
552 304
553 304
554 304
555 304
556 304
557 304
558 304
559 304
560 304
561 304
562 304
563 304
564 304
565 304
566 304
567 304
568 304
569 304
570 304
571 304
572 304
573 304
574 304
575 304
576 304
577 304
578 304
579 304
580 304
581 304
582 304
583 304
584 304
585 304
586 304
587 304
588 304
589 304
590 304
591 304
592 304
593 304
594 304
595 304
596 304
597 304
598 304
599 304
530 305
531 305
532 305
533 305
534 305
535 305
536 305
537 305
538 305
539 305
540 305
541 305
542 305
543 305
544 305
545 305
546 305
547 305
548 305
549 305
550 305
551 305
552 305
553 305
554 305
555 305
556 305
557 305
558 305
559 305
560 305
561 305
562 305
563 305
564 305
565 305
566 305
567 305
568 305
569 305
570 305
571 305
572 305
573 305
574 305
575 305
576 305
577 305
578 305
579 305
580 305
581 305
582 305
583 305
584 305
585 305
586 305
587 305
588 305
589 305
590 305
591 305
592 305
593 305
594 305
595 305
596 305
597 305
598 305
599 305
530 306
531 306
532 306
533 306
534 306
535 306
536 306
537 306
538 306
539 306
540 306
541 306
542 306
543 306
544 306
545 306
546 306
547 306
548 306
549 306
550 306
551 306
552 306
553 306
554 306
555 306
556 306
557 306
558 306
559 306
560 306
561 306
562 306
563 306
564 306
565 306
566 306
567 306
568 306
569 306
570 306
571 306
572 306
573 306
574 306
575 306
576 306
577 306
578 306
579 306
580 306
581 306
582 306
583 306
584 306
585 306
586 306
587 306
588 306
589 306
590 306
591 306
592 306
593 306
594 306
595 306
596 306
597 306
598 306
599 306
530 307
531 307
532 307
533 307
534 307
535 307
536 307
537 307
538 307
539 307
540 307
541 307
542 307
543 307
544 307
545 307
546 307
547 307
548 307
549 307
550 307
551 307
552 307
553 307
554 307
555 307
556 307
557 307
558 307
559 307
560 307
561 307
562 307
563 307
564 307
565 307
566 307
567 307
568 307
569 307
570 307
571 307
572 307
573 307
574 307
575 307
576 307
577 307
578 307
579 307
580 307
581 307
582 307
583 307
584 307
585 307
586 307
587 307
588 307
589 307
590 307
591 307
592 307
593 307
594 307
595 307
596 307
597 307
598 307
599 307
530 308
531 308
532 308
533 308
534 308
535 308
536 308
537 308
538 308
539 308
540 308
541 308
542 308
543 308
544 308
545 308
546 308
547 308
548 308
549 308
550 308
551 308
552 308
553 308
554 308
555 308
556 308
557 308
558 308
559 308
560 308
561 308
562 308
563 308
564 308
565 308
566 308
567 308
568 308
569 308
570 308
571 308
572 308
573 308
574 308
575 308
576 308
577 308
578 308
579 308
580 308
581 308
582 308
583 308
584 308
585 308
586 308
587 308
588 308
589 308
590 308
591 308
592 308
593 308
594 308
595 308
596 308
597 308
598 308
599 308
530 309
531 309
532 309
533 309
534 309
535 309
536 309
537 309
538 309
539 309
540 309
541 309
542 309
543 309
544 309
545 309
546 309
547 309
548 309
549 309
550 309
551 309
552 309
553 309
554 309
555 309
556 309
557 309
558 309
559 309
560 309
561 309
562 309
563 309
564 309
565 309
566 309
567 309
568 309
569 309
570 309
571 309
572 309
573 309
574 309
575 309
576 309
577 309
578 309
579 309
580 309
581 309
582 309
583 309
584 309
585 309
586 309
587 309
588 309
589 309
590 309
591 309
592 309
593 309
594 309
595 309
596 309
597 309
598 309
599 309
530 310
531 310
532 310
533 310
534 310
535 310
536 310
537 310
538 310
539 310
540 310
541 310
542 310
543 310
544 310
545 310
546 310
547 310
548 310
549 310
550 310
551 310
552 310
553 310
554 310
555 310
556 310
557 310
558 310
559 310
560 310
561 310
562 310
563 310
564 310
565 310
566 310
567 310
568 310
569 310
570 310
571 310
572 310
573 310
574 310
575 310
576 310
577 310
578 310
579 310
580 310
581 310
582 310
583 310
584 310
585 310
586 310
587 310
588 310
589 310
590 310
591 310
592 310
593 310
594 310
595 310
596 310
597 310
598 310
599 310
530 311
531 311
532 311
533 311
534 311
535 311
536 311
537 311
538 311
539 311
540 311
541 311
542 311
543 311
544 311
545 311
546 311
547 311
548 311
549 311
550 311
551 311
552 311
553 311
554 311
555 311
556 311
557 311
558 311
559 311
560 311
561 311
562 311
563 311
564 311
565 311
566 311
567 311
568 311
569 311
570 311
571 311
572 311
573 311
574 311
575 311
576 311
577 311
578 311
579 311
580 311
581 311
582 311
583 311
584 311
585 311
586 311
587 311
588 311
589 311
590 311
591 311
592 311
593 311
594 311
595 311
596 311
597 311
598 311
599 311
530 312
531 312
532 312
533 312
534 312
535 312
536 312
537 312
538 312
539 312
540 312
541 312
542 312
543 312
544 312
545 312
546 312
547 312
548 312
549 312
550 312
551 312
552 312
553 312
554 312
555 312
556 312
557 312
558 312
559 312
560 312
561 312
562 312
563 312
564 312
565 312
566 312
567 312
568 312
569 312
570 312
571 312
572 312
573 312
574 312
575 312
576 312
577 312
578 312
579 312
580 312
581 312
582 312
583 312
584 312
585 312
586 312
587 312
588 312
589 312
590 312
591 312
592 312
593 312
594 312
595 312
596 312
597 312
598 312
599 312
